            Node            U.U2           E.E11           E.E22           S.S11
           Label          @Loc 1          @Loc 1          @Loc 1          @Loc 1
---------------------------------------------------------------------------------
               1    -107.109E-36    -3.33863E-03    -551.154E-12        -943.804
               2    -58.7616E-36    -1.66094E-03    -210.662E-12        -469.535
               3    -58.1135E-36    -151.879E-06    -15.9162E-12        -42.9351
               4    -59.4956E-36     1.37706E-03     231.012E-12         389.286
               5    -99.4448E-36     2.98719E-03     603.904E-12         844.457
               6    -188.212E-36    -2.63927E-03    -653.927E-12        -746.102
               7    -131.372E-36    -1.09011E-03    -218.989E-12        -308.165
               8    -127.680E-36    -59.6840E-06    -3.12639E-12        -16.8722
               9    -133.841E-36     975.360E-06     158.707E-12         275.727
              10    -181.967E-36     2.47049E-03     582.077E-12         698.389
              11    -186.511E-36    -2.73382E-03    -715.772E-12        -772.829
              12    -115.363E-36    -1.07431E-03    -227.104E-12        -303.699
              13    -97.6496E-36     7.73070E-12     2.27374E-12    -1.31130E-06
              14    -115.363E-36     1.07431E-03     226.692E-12         303.699
              15    -186.511E-36     2.73382E-03     607.542E-12         772.829
              16    -181.967E-36    -2.47049E-03    -597.993E-12        -698.389
              17    -133.841E-36    -975.360E-06    -213.902E-12        -275.727
              18    -127.680E-36     59.6840E-06     2.33058E-12         16.8722
              19    -131.372E-36     1.09011E-03     201.908E-12         308.165
              20    -188.212E-36     2.63927E-03     600.267E-12         746.102
              21    -99.4448E-36    -2.98719E-03    -465.661E-12        -844.456
              22    -59.4956E-36    -1.37707E-03    -263.299E-12        -389.286
              23    -58.1135E-36     151.879E-06     3.63798E-12         42.9351
              24    -58.7616E-36     1.66094E-03     236.469E-12         469.535
              25    -107.109E-36     3.33863E-03     640.284E-12         943.805
              26    -2.54307E-03    -3.26103E-03     1.05467E-03        -667.604
              27    -723.019E-06    -1.77371E-03     486.631E-06        -371.493
              28     17.4646E-06    -172.844E-06     32.0832E-06        -37.1635
              29    -540.044E-06     1.41621E-03    -411.859E-06         294.846
              30    -2.13865E-03     2.91776E-03    -944.844E-06         597.330
              31    -3.74805E-03    -3.30607E-03     1.16974E-03        -708.329
              32    -1.80145E-03    -1.79301E-03     472.746E-06        -403.418
              33    -1.10586E-03    -91.0895E-06     16.6351E-06        -20.6370
              34    -1.70547E-03     1.60427E-03    -433.193E-06         360.953
              35    -3.53503E-03     3.12885E-03    -1.11170E-03         671.310
              36    -3.97154E-03    -3.11118E-03     1.16050E-03        -668.942
              37    -2.06535E-03    -1.63961E-03     460.261E-06        -371.465
              38    -1.39649E-03     9.52127E-12     4.77485E-12     774.860E-09
              39    -2.06535E-03     1.63961E-03    -460.261E-06         371.465
              40    -3.97154E-03     3.11118E-03    -1.16050E-03         668.942
              41    -3.53503E-03    -3.12885E-03     1.11170E-03        -671.310
              42    -1.70547E-03    -1.60427E-03     433.193E-06        -360.953
              43    -1.10586E-03     91.0894E-06    -16.6351E-06         20.6370
              44    -1.80145E-03     1.79301E-03    -472.746E-06         403.418
              45    -3.74805E-03     3.30607E-03    -1.16974E-03         708.329
              46    -2.13865E-03    -2.91776E-03     944.844E-06        -597.330
              47    -540.044E-06    -1.41621E-03     411.859E-06        -294.846
              48     17.4645E-06     172.844E-06    -32.0831E-06         37.1635
              49    -723.019E-06     1.77371E-03    -486.631E-06         371.493
              50    -2.54307E-03     3.26103E-03    -1.05467E-03         667.604
              51    -7.85388E-03    -3.22894E-03     948.798E-06        -682.110
              52    -5.96778E-03    -1.70408E-03     546.620E-06        -356.608
              53    -5.22016E-03    -176.803E-06     48.6824E-06        -37.6204
              54    -5.72223E-03     1.34992E-03    -442.961E-06         281.763
              55    -7.34729E-03     2.88905E-03    -848.203E-06         610.309
              56    -9.39932E-03    -3.27224E-03     968.541E-06        -691.338
              57    -7.48843E-03    -1.71962E-03     538.749E-06        -359.826
              58    -6.79818E-03    -91.4748E-06     25.0906E-06        -19.2486
              59    -7.36282E-03     1.53860E-03    -485.945E-06         321.949
              60    -9.14436E-03     3.10258E-03    -920.357E-06         655.872
              61    -9.79102E-03    -3.18245E-03     960.136E-06        -677.166
              62    -7.89874E-03    -1.64654E-03     530.521E-06        -346.473
              63    -7.25567E-03    -43.7126E-12    -15.1203E-12    -2.68221E-06
              64    -7.89874E-03     1.64654E-03    -530.521E-06         346.473
              65    -9.79103E-03     3.18245E-03    -960.136E-06         677.166
              66    -9.14436E-03    -3.10258E-03     920.357E-06        -655.872
              67    -7.36282E-03    -1.53860E-03     485.945E-06        -321.949
              68    -6.79818E-03     91.4748E-06    -25.0907E-06         19.2486
              69    -7.48843E-03     1.71962E-03    -538.749E-06         359.826
              70    -9.39932E-03     3.27224E-03    -968.541E-06         691.338
              71    -7.34728E-03    -2.88905E-03     848.203E-06        -610.309
              72    -5.72223E-03    -1.34992E-03     442.961E-06        -281.763
              73    -5.22016E-03     176.803E-06    -48.6825E-06         37.6204
              74    -5.96778E-03     1.70408E-03    -546.620E-06         356.608
              75    -7.85388E-03     3.22894E-03    -948.798E-06         682.110
              76    -17.3784E-03    -3.36418E-03     1.01553E-03        -704.741
              77    -15.4520E-03    -1.76106E-03     531.198E-06        -369.035
              78    -14.7160E-03    -179.819E-06     52.6587E-06        -37.8109
              79    -15.1875E-03     1.40313E-03    -425.056E-06         293.880
              80    -16.8475E-03     3.01005E-03    -908.433E-06         630.557
              81    -19.0190E-03    -3.30927E-03     1.00487E-03        -694.807
              82    -17.1319E-03    -1.69781E-03     509.912E-06        -356.829
              83    -16.4576E-03    -90.1500E-06     26.6912E-06        -18.9606
              84    -16.9983E-03     1.51909E-03    -456.631E-06         319.268
              85    -18.7527E-03     3.13348E-03    -951.810E-06         657.978
              86    -19.4628E-03    -3.23673E-03     986.902E-06        -680.594
              87    -17.6250E-03    -1.62270E-03     488.850E-06        -341.290
              88    -17.0104E-03    -9.66338E-12    -123.947E-12     417.233E-09
              89    -17.6250E-03     1.62270E-03    -488.850E-06         341.290
              90    -19.4628E-03     3.23673E-03    -986.902E-06         680.595
              91    -18.7527E-03    -3.13348E-03     951.810E-06        -657.978
              92    -16.9983E-03    -1.51909E-03     456.631E-06        -319.268
              93    -16.4576E-03     90.1501E-06    -26.6914E-06         18.9606
              94    -17.1319E-03     1.69781E-03    -509.912E-06         356.829
              95    -19.0190E-03     3.30927E-03    -1.00487E-03         694.807
              96    -16.8475E-03    -3.01005E-03     908.433E-06        -630.557
              97    -15.1875E-03    -1.40313E-03     425.056E-06        -293.880
              98    -14.7160E-03     179.819E-06    -52.6590E-06         37.8109
              99    -15.4520E-03     1.76106E-03    -531.198E-06         369.035
             100    -17.3784E-03     3.36418E-03    -1.01553E-03         704.741
             101    -30.9747E-03    -3.38310E-03     1.01301E-03        -710.910
             102    -29.0398E-03    -1.77731E-03     534.143E-06        -373.377
             103    -28.3042E-03    -178.873E-06     53.5461E-06        -37.5799
             104    -28.7723E-03     1.42002E-03    -426.976E-06         298.326
             105    -30.4396E-03     3.02698E-03    -906.368E-06         636.077
             106    -32.6396E-03    -3.30435E-03     989.736E-06        -694.116
             107    -30.7649E-03    -1.69660E-03     508.848E-06        -356.205
             108    -30.0951E-03    -89.5458E-06     26.9253E-06        -18.7934
             109    -30.6306E-03     1.51801E-03    -455.181E-06         318.710
             110    -32.3718E-03     3.12672E-03    -936.675E-06         656.799
             111    -33.1008E-03    -3.21971E-03     965.524E-06        -676.438
             112    -31.2871E-03    -1.61182E-03     484.100E-06        -338.281
             113    -30.6822E-03     46.3274E-12    -342.737E-12     7.13766E-06
             114    -31.2871E-03     1.61182E-03    -484.100E-06         338.281
             115    -33.1008E-03     3.21971E-03    -965.524E-06         676.438
             116    -32.3718E-03    -3.12672E-03     936.675E-06        -656.799
             117    -30.6306E-03    -1.51801E-03     455.181E-06        -318.710
             118    -30.0951E-03     89.5462E-06    -26.9261E-06         18.7935
             119    -30.7649E-03     1.69660E-03    -508.848E-06         356.205
             120    -32.6396E-03     3.30435E-03    -989.737E-06         694.116
             121    -30.4396E-03    -3.02698E-03     906.367E-06        -636.077
             122    -28.7723E-03    -1.42002E-03     426.975E-06        -298.326
             123    -28.3042E-03     178.874E-06    -53.5472E-06         37.5800
             124    -29.0398E-03     1.77731E-03    -534.144E-06         373.377
             125    -30.9747E-03     3.38310E-03    -1.01301E-03         710.909
             126    -48.6179E-03    -3.39087E-03     1.01744E-03        -712.038
             127    -46.6775E-03    -1.78379E-03     535.203E-06        -374.590
             128    -45.9414E-03    -178.697E-06     53.6154E-06        -37.5219
             129    -46.4095E-03     1.42659E-03    -428.037E-06         299.584
             130    -48.0821E-03     3.03394E-03    -910.338E-06         637.086
             131    -50.2900E-03    -3.30396E-03     991.544E-06        -693.780
             132    -48.4151E-03    -1.69643E-03     508.644E-06        -356.242
             133    -47.7457E-03    -89.3729E-06     26.8563E-06        -18.7645
             134    -48.2809E-03     1.51786E-03    -455.033E-06         318.743
             135    -50.0219E-03     3.12560E-03    -938.041E-06         656.325
             136    -50.7567E-03    -3.21658E-03     965.527E-06        -675.399
             137    -48.9471E-03    -1.60872E-03     482.371E-06        -337.763
             138    -48.3443E-03     113.005E-12    -743.611E-12     11.7123E-06
             139    -48.9472E-03     1.60872E-03    -482.372E-06         337.763
             140    -50.7567E-03     3.21657E-03    -965.527E-06         675.398
             141    -50.0219E-03    -3.12560E-03     938.043E-06        -656.326
             142    -48.2809E-03    -1.51786E-03     455.033E-06        -318.743
             143    -47.7457E-03     89.3743E-06    -26.8581E-06         18.7648
             144    -48.4151E-03     1.69643E-03    -508.645E-06         356.242
             145    -50.2900E-03     3.30396E-03    -991.544E-06         693.780
             146    -48.0821E-03    -3.03394E-03     910.338E-06        -637.087
             147    -46.4095E-03    -1.42659E-03     428.036E-06        -299.584
             148    -45.9413E-03     178.701E-06    -53.6181E-06         37.5225
             149    -46.6775E-03     1.78379E-03    -535.204E-06         374.590
             150    -48.6179E-03     3.39087E-03    -1.01744E-03         712.038
             151    -70.2837E-03    -3.39248E-03     1.01762E-03        -712.453
             152    -68.3420E-03    -1.78534E-03     535.617E-06        -374.941
             153    -67.6055E-03    -178.590E-06     53.5935E-06        -37.5029
             154    -68.0741E-03     1.42820E-03    -428.453E-06         299.941
             155    -69.7479E-03     3.03537E-03    -910.510E-06         637.458
             156    -71.9572E-03    -3.30361E-03     990.909E-06        -693.757
             157    -70.0825E-03    -1.69645E-03     508.824E-06        -356.246
             158    -69.4130E-03    -89.3059E-06     26.8120E-06        -18.7524
             159    -69.9485E-03     1.51787E-03    -455.232E-06         318.746
             160    -71.6893E-03     3.12508E-03    -937.366E-06         656.262
             161    -72.4255E-03    -3.21471E-03     964.271E-06        -675.069
             162    -70.6173E-03    -1.60753E-03     482.159E-06        -337.549
             163    -70.0146E-03     526.313E-12    -894.275E-12     65.8333E-06
             164    -70.6173E-03     1.60753E-03    -482.159E-06         337.548
             165    -72.4255E-03     3.21470E-03    -964.268E-06         675.067
             166    -71.6893E-03    -3.12509E-03     937.370E-06        -656.264
             167    -69.9484E-03    -1.51788E-03     455.233E-06        -318.747
             168    -69.4129E-03     89.3093E-06    -26.8142E-06         18.7531
             169    -70.0825E-03     1.69645E-03    -508.826E-06         356.246
             170    -71.9572E-03     3.30361E-03    -990.909E-06         693.756
             171    -69.7479E-03    -3.03538E-03     910.511E-06        -637.459
             172    -68.0741E-03    -1.42820E-03     428.451E-06        -299.941
             173    -67.6055E-03     178.600E-06    -53.5974E-06         37.5048
             174    -68.3420E-03     1.78535E-03    -535.620E-06         374.943
             175    -70.2837E-03     3.39248E-03    -1.01763E-03         712.454
             176    -95.9689E-03    -3.39283E-03     1.01785E-03        -712.495
             177    -94.0270E-03    -1.78567E-03     535.705E-06        -374.992
             178    -93.2903E-03    -178.569E-06     53.5803E-06        -37.4983
             179    -93.7591E-03     1.42854E-03    -428.558E-06         299.996
             180    -95.4331E-03     3.03569E-03    -910.713E-06         637.495
             181    -97.6429E-03    -3.30357E-03     991.069E-06        -693.743
             182    -95.7680E-03    -1.69642E-03     508.896E-06        -356.246
             183    -95.0984E-03    -89.2878E-06     26.7948E-06        -18.7498
             184    -95.6340E-03     1.51785E-03    -455.317E-06         318.746
             185    -97.3750E-03     3.12498E-03    -937.495E-06         656.240
             186    -98.1115E-03    -3.21438E-03     964.316E-06        -675.005
             187    -96.3035E-03    -1.60722E-03     482.133E-06        -337.507
             188    -95.7008E-03     1.60503E-09     1.28180E-09     283.912E-06
             189    -96.3035E-03     1.60722E-03    -482.130E-06         337.506
             190    -98.1115E-03     3.21436E-03    -964.309E-06         675.001
             191    -97.3750E-03    -3.12501E-03     937.506E-06        -656.246
             192    -95.6340E-03    -1.51786E-03     455.323E-06        -318.748
             193    -95.0983E-03     89.2926E-06    -26.7919E-06         18.7510
             194    -95.7679E-03     1.69643E-03    -508.898E-06         356.248
             195    -97.6429E-03     3.30357E-03    -991.070E-06         693.742
             196    -95.4331E-03    -3.03571E-03     910.719E-06        -637.499
             197    -93.7590E-03    -1.42854E-03     428.559E-06        -299.996
             198    -93.2903E-03     178.584E-06    -53.5786E-06         37.5022
             199    -94.0269E-03     1.78570E-03    -535.709E-06         374.998
             200    -95.9689E-03     3.39285E-03    -1.01786E-03         712.498
             201    -125.672E-03    -3.39285E-03     1.01785E-03        -712.500
             202    -123.730E-03    -1.78570E-03     535.720E-06        -374.997
             203    -122.994E-03    -178.569E-06     53.5907E-06        -37.4977
             204    -123.462E-03     1.42857E-03    -428.563E-06         300.001
             205    -125.136E-03     3.03569E-03    -910.703E-06         637.497
             206    -127.346E-03    -3.30355E-03     991.052E-06        -693.746
             207    -125.471E-03    -1.69641E-03     508.921E-06        -356.245
             208    -124.802E-03    -89.2865E-06     26.8012E-06        -18.7494
             209    -125.337E-03     1.51784E-03    -455.335E-06         318.746
             210    -127.078E-03     3.12495E-03    -937.469E-06         656.239
             211    -127.815E-03    -3.21428E-03     964.274E-06        -674.998
             212    -126.007E-03    -1.60714E-03     482.142E-06        -337.498
             213    -125.404E-03     3.24758E-09     12.4011E-09     768.423E-06
             214    -126.007E-03     1.60715E-03    -482.128E-06         337.499
             215    -127.815E-03     3.21427E-03    -964.260E-06         674.993
             216    -127.078E-03    -3.12502E-03     937.497E-06        -656.253
             217    -125.337E-03    -1.51787E-03     455.360E-06        -318.751
             218    -124.802E-03     89.2838E-06    -26.7717E-06         18.7502
             219    -125.471E-03     1.69644E-03    -508.917E-06         356.252
             220    -127.346E-03     3.30357E-03    -991.056E-06         693.748
             221    -125.136E-03    -3.03576E-03     910.719E-06        -637.510
             222    -123.462E-03    -1.42860E-03     428.585E-06        -300.005
             223    -122.994E-03     178.571E-06    -53.5538E-06         37.5016
             224    -123.730E-03     1.78575E-03    -535.714E-06         375.009
             225    -125.672E-03     3.39289E-03    -1.01786E-03         712.509
             226    -159.394E-03    -3.39281E-03     1.01784E-03        -712.491
             227    -157.452E-03    -1.78569E-03     535.741E-06        -374.993
             228    -156.715E-03    -178.618E-06     53.6477E-06        -37.5045
             229    -157.184E-03     1.42852E-03    -428.529E-06         299.991
             230    -158.858E-03     3.03564E-03    -910.696E-06         637.483
             231    -161.068E-03    -3.30351E-03     991.057E-06        -693.738
             232    -159.193E-03    -1.69639E-03     508.939E-06        -356.241
             233    -158.523E-03    -89.3051E-06     26.8391E-06        -18.7516
             234    -159.059E-03     1.51782E-03    -455.317E-06         318.742
             235    -160.800E-03     3.12494E-03    -937.470E-06         656.234
             236    -161.536E-03    -3.21422E-03     964.278E-06        -674.991
             237    -159.728E-03    -1.60711E-03     482.159E-06        -337.493
             238    -159.126E-03     3.01713E-09     47.0763E-09     1.70924E-03
             239    -159.728E-03     1.60716E-03    -482.116E-06         337.501
             240    -161.536E-03     3.21430E-03    -964.273E-06         674.998
             241    -160.800E-03    -3.12502E-03     937.512E-06        -656.258
             242    -159.059E-03    -1.51789E-03     455.394E-06        -318.755
             243    -158.523E-03     89.2581E-06    -26.7257E-06         18.7470
             244    -159.192E-03     1.69646E-03    -508.910E-06         356.256
             245    -161.067E-03     3.30362E-03    -991.081E-06         693.757
             246    -158.858E-03    -3.03580E-03     910.739E-06        -637.518
             247    -157.184E-03    -1.42865E-03     428.623E-06        -300.014
             248    -156.715E-03     178.514E-06    -53.4919E-06         37.4932
             249    -157.451E-03     1.78576E-03    -535.692E-06         375.012
             250    -159.393E-03     3.39293E-03    -1.01789E-03         712.515
             251    -197.133E-03    -3.39274E-03     1.01780E-03        -712.476
             252    -195.191E-03    -1.78575E-03     535.810E-06        -375.001
             253    -194.454E-03    -178.796E-06     53.7955E-06        -37.5349
             254    -194.922E-03     1.42836E-03    -428.436E-06         299.963
             255    -196.596E-03     3.03553E-03    -910.672E-06         637.461
             256    -198.807E-03    -3.30335E-03     991.011E-06        -693.710
             257    -196.932E-03    -1.69635E-03     508.965E-06        -356.232
             258    -196.262E-03    -89.3746E-06     26.9339E-06        -18.7615
             259    -196.798E-03     1.51778E-03    -455.266E-06         318.735
             260    -198.538E-03     3.12495E-03    -937.461E-06         656.234
             261    -199.276E-03    -3.21405E-03     964.252E-06        -674.959
             262    -197.468E-03    -1.60704E-03     482.179E-06        -337.479
             263    -196.865E-03    -23.1494E-09     125.498E-09    -301.644E-06
             264    -197.467E-03     1.60720E-03    -482.091E-06         337.510
             265    -199.275E-03     3.21445E-03    -964.300E-06         675.024
             266    -198.539E-03    -3.12497E-03     937.521E-06        -656.249
             267    -196.798E-03    -1.51793E-03     455.444E-06        -318.762
             268    -196.262E-03     89.1689E-06    -26.6279E-06         18.7324
             269    -196.931E-03     1.69649E-03    -508.886E-06         356.264
             270    -198.806E-03     3.30380E-03    -991.129E-06         693.791
             271    -196.597E-03    -3.03591E-03     910.749E-06        -637.542
             272    -194.923E-03    -1.42884E-03     428.723E-06        -300.051
             273    -194.454E-03     178.309E-06    -53.3459E-06         37.4575
             274    -195.190E-03     1.78573E-03    -535.638E-06         375.010
             275    -197.132E-03     3.39308E-03    -1.01794E-03         712.544
             276    -238.891E-03    -3.39258E-03     1.01775E-03        -712.454
             277    -236.949E-03    -1.78593E-03     535.931E-06        -375.036
             278    -236.211E-03    -179.260E-06     54.0779E-06        -37.6228
             279    -236.679E-03     1.42801E-03    -428.252E-06         299.892
             280    -238.352E-03     3.03537E-03    -910.629E-06         637.427
             281    -240.564E-03    -3.30293E-03     990.872E-06        -693.618
             282    -238.689E-03    -1.69630E-03     508.989E-06        -356.213
             283    -238.019E-03    -89.5490E-06     27.0668E-06        -18.7916
             284    -238.554E-03     1.51769E-03    -455.185E-06         318.720
             285    -240.295E-03     3.12510E-03    -937.496E-06         656.260
             286    -241.032E-03    -3.21358E-03     964.002E-06        -674.855
             287    -239.225E-03    -1.60699E-03     482.191E-06        -337.456
             288    -238.622E-03    -121.694E-09     226.366E-09    -9.60703E-03
             289    -239.224E-03     1.60728E-03    -482.053E-06         337.531
             290    -241.032E-03     3.21487E-03    -964.415E-06         675.108
             291    -240.296E-03    -3.12467E-03     937.326E-06        -656.191
             292    -238.555E-03    -1.51802E-03     455.512E-06        -318.777
             293    -238.019E-03     88.9699E-06    -26.5056E-06         18.6976
             294    -238.688E-03     1.69656E-03    -508.851E-06         356.282
             295    -240.563E-03     3.30431E-03    -991.277E-06         693.897
             296    -238.355E-03    -3.03606E-03     910.857E-06        -637.578
             297    -236.680E-03    -1.42934E-03     428.902E-06        -300.152
             298    -236.210E-03     177.801E-06    -53.1606E-06         37.3481
             299    -236.946E-03     1.78561E-03    -535.566E-06         374.987
             300    -238.888E-03     3.39349E-03    -1.01806E-03         712.631
             301    -284.666E-03    -3.39185E-03     1.01749E-03        -712.288
             302    -282.724E-03    -1.78632E-03     536.074E-06        -375.132
             303    -281.986E-03    -179.954E-06     54.2995E-06        -37.7796
             304    -282.453E-03     1.42729E-03    -428.001E-06         299.743
             305    -284.126E-03     3.03521E-03    -910.569E-06         637.392
             306    -286.338E-03    -3.30204E-03     990.439E-06        -693.404
             307    -284.464E-03    -1.69627E-03     508.851E-06        -356.197
             308    -283.794E-03    -89.8868E-06     27.0957E-06        -18.8493
             309    -284.329E-03     1.51754E-03    -455.171E-06         318.694
             310    -286.070E-03     3.12551E-03    -937.636E-06         656.357
             311    -286.806E-03    -3.21309E-03     963.926E-06        -674.653
             312    -284.999E-03    -1.60715E-03     481.964E-06        -337.440
             313    -284.397E-03    -561.931E-09     102.792E-09    -92.2884E-03
             314    -284.999E-03     1.60726E-03    -482.209E-06         337.535
             315    -286.808E-03     3.21570E-03    -964.699E-06         675.306
             316    -286.070E-03    -3.12406E-03     937.392E-06        -656.004
             317    -284.330E-03    -1.51819E-03     455.289E-06        -318.799
             318    -283.794E-03     88.5622E-06    -26.7132E-06         18.5931
             319    -284.463E-03     1.69661E-03    -509.026E-06         356.289
             320    -286.339E-03     3.30548E-03    -991.584E-06         694.159
             321    -284.129E-03    -3.03613E-03     910.646E-06        -637.583
             322    -282.454E-03    -1.43018E-03     429.026E-06        -300.370
             323    -281.985E-03     176.997E-06    -53.2767E-06         37.1562
             324    -282.721E-03     1.78540E-03    -535.664E-06         374.927
             325    -284.664E-03     3.39450E-03    -1.01831E-03         712.851
             326    -334.456E-03    -3.39029E-03     1.01706E-03        -712.091
             327    -332.515E-03    -1.78537E-03     535.452E-06        -374.972
             328    -331.778E-03    -180.204E-06     53.8529E-06        -37.8685
             329    -332.246E-03     1.42653E-03    -427.998E-06         299.556
             330    -333.919E-03     3.03504E-03    -910.382E-06         637.367
             331    -336.127E-03    -3.30098E-03     989.857E-06        -693.107
             332    -334.254E-03    -1.69657E-03     508.199E-06        -356.188
             333    -333.586E-03    -90.0948E-06     25.9251E-06        -18.9620
             334    -334.123E-03     1.51723E-03    -455.538E-06         318.635
             335    -335.865E-03     3.12627E-03    -938.001E-06         656.565
             336    -336.593E-03    -3.21273E-03     961.594E-06        -674.386
             337    -334.788E-03    -1.60863E-03     481.497E-06        -337.615
             338    -334.189E-03    -1.15776E-06    -1.33535E-06    -205.761E-03
             339    -334.794E-03     1.60699E-03    -482.688E-06         337.518
             340    -336.605E-03     3.21671E-03    -965.484E-06         675.606
             341    -335.857E-03    -3.12212E-03     934.698E-06        -655.551
             342    -334.118E-03    -1.51835E-03     454.552E-06        -318.811
             343    -333.587E-03     88.8762E-06    -28.5659E-06         18.6037
             344    -334.261E-03     1.69671E-03    -509.600E-06         356.319
             345    -336.138E-03     3.30728E-03    -992.338E-06         694.584
             346    -333.918E-03    -3.03571E-03     911.760E-06        -637.665
             347    -332.243E-03    -1.43105E-03     428.029E-06        -300.597
             348    -331.778E-03     177.272E-06    -55.8174E-06         36.9479
             349    -332.519E-03     1.78527E-03    -536.644E-06         374.844
             350    -334.462E-03     3.39640E-03    -1.01855E-03         713.276
             351    -388.253E-03    -3.38046E-03     1.01480E-03        -709.838
             352    -386.318E-03    -1.78106E-03     533.433E-06        -374.176
             353    -385.589E-03    -175.701E-06     49.7602E-06        -37.2046
             354    -386.064E-03     1.42620E-03    -429.114E-06         299.402
             355    -387.737E-03     3.03442E-03    -909.898E-06         637.244
             356    -389.923E-03    -3.30014E-03     988.301E-06        -692.468
             357    -388.053E-03    -1.69663E-03     505.693E-06        -356.440
             358    -387.395E-03    -88.9208E-06     21.8286E-06        -18.8263
             359    -387.941E-03     1.51742E-03    -457.356E-06         318.590
             360    -389.685E-03     3.12633E-03    -938.328E-06         656.752
             361    -390.392E-03    -3.22101E-03     970.023E-06        -674.921
             362    -388.588E-03    -1.61539E-03     476.685E-06        -339.028
             363    -387.998E-03    -2.99640E-06    -7.74950E-06        -1.02518
             364    -388.615E-03     1.60626E-03    -485.570E-06         337.306
             365    -390.428E-03     3.21638E-03    -965.567E-06         675.877
             366    -389.654E-03    -3.12547E-03     942.543E-06        -655.083
             367    -387.921E-03    -1.52002E-03     447.771E-06        -319.325
             368    -387.403E-03     90.3287E-06    -36.3594E-06         18.3556
             369    -388.089E-03     1.69666E-03    -512.576E-06         356.206
             370    -389.968E-03     3.30771E-03    -991.817E-06         694.934
             371    -387.704E-03    -3.03024E-03     906.180E-06        -635.748
             372    -386.038E-03    -1.42531E-03     423.106E-06        -300.151
             373    -385.594E-03     184.615E-06    -64.6091E-06         38.1459
             374    -386.352E-03     1.78683E-03    -540.289E-06         374.918
             375    -388.298E-03     3.39681E-03    -1.01799E-03         713.478
             376    -446.049E-03    -3.35762E-03     1.00910E-03        -703.877
             377    -444.127E-03    -1.75551E-03     525.061E-06        -368.986
             378    -443.422E-03    -163.484E-06     40.2182E-06        -34.8719
             379    -443.917E-03     1.42844E-03    -432.971E-06         299.607
             380    -445.591E-03     3.03033E-03    -907.636E-06         636.525
             381    -447.717E-03    -3.31468E-03     995.019E-06        -698.130
             382    -445.852E-03    -1.69653E-03     498.052E-06        -356.615
             383    -445.220E-03    -77.8465E-06     7.45300E-06        -17.5081
             384    -445.789E-03     1.51772E-03    -461.687E-06         318.458
             385    -447.536E-03     3.12257E-03    -937.840E-06         656.215
             386    -448.159E-03    -3.23884E-03     944.034E-06        -679.337
             387    -446.349E-03    -1.62527E-03     478.872E-06        -340.523
             388    -445.824E-03     9.10001E-06    -29.4605E-06     607.520E-03
             389    -446.471E-03     1.60483E-03    -490.267E-06         336.757
             390    -448.285E-03     3.20832E-03    -963.410E-06         674.787
             391    -447.420E-03    -3.12902E-03     907.470E-06        -656.088
             392    -445.694E-03    -1.51760E-03     446.106E-06        -317.892
             393    -445.250E-03     107.850E-06    -59.4073E-06         21.2195
             394    -445.967E-03     1.69445E-03    -516.661E-06         355.488
             395    -447.846E-03     3.29675E-03    -988.315E-06         692.995
             396    -445.487E-03    -3.03235E-03     917.923E-06        -641.873
             397    -443.844E-03    -1.39459E-03     400.787E-06        -293.138
             398    -443.452E-03     216.687E-06    -90.3509E-06         43.4995
             399    -444.250E-03     1.78736E-03    -546.312E-06         374.813
             400    -446.196E-03     3.38605E-03    -1.01303E-03         711.343
             401    -507.845E-03    -3.33862E-03     1.00800E-03        -699.259
             402    -505.942E-03    -1.75879E-03     516.421E-06        -369.970
             403    -505.284E-03    -138.424E-06     12.3941E-06        -31.9345
             404    -505.822E-03     1.43028E-03    -442.209E-06         299.376
             405    -507.496E-03     3.01944E-03    -902.449E-06         634.448
             406    -509.488E-03    -3.28003E-03     985.195E-06        -690.176
             407    -507.622E-03    -1.62452E-03     488.379E-06        -343.767
             408    -507.063E-03    -61.9639E-06    -18.8259E-06        -15.8264
             409    -507.671E-03     1.52221E-03    -469.460E-06         318.658
             410    -509.422E-03     3.10771E-03    -932.688E-06         653.815
             411    -509.859E-03    -3.43138E-03     1.12038E-03        -715.814
             412    -508.146E-03    -1.66303E-03     333.560E-06        -366.068
             413    -507.664E-03     60.6700E-06    -49.3434E-06         11.3048
             414    -508.375E-03     1.59879E-03    -496.083E-06         334.804
             415    -510.180E-03     3.18025E-03    -952.933E-06         669.643
             416    -509.151E-03    -3.33039E-03     1.08826E-03        -690.760
             417    -507.541E-03    -1.55836E-03     288.010E-06        -343.578
             418    -507.140E-03     157.998E-06    -76.6686E-06         32.4312
             419    -507.915E-03     1.68084E-03    -518.588E-06         352.220
             420    -509.774E-03     3.25690E-03    -972.694E-06         685.248
             421    -507.245E-03    -2.89911E-03     831.735E-06        -608.967
             422    -505.685E-03    -1.21211E-03     379.704E-06        -253.346
             423    -505.417E-03     251.553E-06    -120.324E-06         49.7416
             424    -506.247E-03     1.77847E-03    -548.633E-06         372.264
             425    -508.176E-03     3.33750E-03    -997.719E-06         701.469
             426    -573.634E-03    -3.36365E-03     1.06467E-03        -694.362
             427    -571.688E-03    -1.76481E-03     482.755E-06        -373.739
             428    -571.111E-03    -117.169E-06    -27.8886E-06        -27.9393
             429    -571.776E-03     1.45574E-03    -475.577E-06         302.736
             430    -573.465E-03     2.99211E-03    -887.986E-06         629.832
             431    -575.259E-03    -3.23053E-03     968.725E-06        -684.003
             432    -573.422E-03    -1.65564E-03     489.447E-06        -350.098
             433    -572.892E-03    -6.15650E-06    -49.4729E-06        -6.82504
             434    -573.581E-03     1.53040E-03    -493.079E-06         318.242
             435    -575.329E-03     3.06485E-03    -918.820E-06         645.403
             436    -575.808E-03    -3.04214E-03     937.707E-06        -641.285
             437    -574.082E-03    -1.46594E-03     441.469E-06        -311.785
             438    -573.594E-03     92.0671E-06    -56.4703E-06         15.3979
             439    -574.301E-03     1.59565E-03    -497.330E-06         333.034
             440    -576.081E-03     3.11025E-03    -931.307E-06         655.108
             441    -575.175E-03    -2.89790E-03     867.696E-06        -611.513
             442    -573.569E-03    -1.35421E-03     411.609E-06        -285.813
             443    -573.148E-03     172.361E-06    -69.5584E-06         33.6800
             444    -573.895E-03     1.65559E-03    -517.176E-06         345.718
             445    -575.711E-03     3.15840E-03    -946.081E-06         664.346
             446    -573.373E-03    -2.78874E-03     844.197E-06        -584.524
             447    -571.852E-03    -1.24688E-03     375.567E-06        -260.151
             448    -571.496E-03     264.845E-06    -104.078E-06         55.0394
             449    -572.321E-03     1.73457E-03    -540.658E-06         362.786
             450    -574.196E-03     3.22801E-03    -964.271E-06         678.760
             451    -643.115E-03    -4.13802E-03     979.809E-06        -927.502
             452    -641.185E-03    -2.08855E-03     563.671E-06        -445.980
             453    -640.760E-03     33.1173E-06    -203.025E-06        -13.4125
             454    -641.732E-03     1.55122E-03    -570.762E-06         318.307
             455    -643.484E-03     2.89928E-03    -854.760E-06         611.290
             456    -644.965E-03    -3.42369E-03     1.14513E-03        -719.401
             457    -643.044E-03    -1.56773E-03     435.824E-06        -335.987
             458    -642.545E-03     115.685E-06    -123.473E-06         15.7032
             459    -643.423E-03     1.59999E-03    -537.942E-06         330.923
             460    -645.192E-03     2.92741E-03    -875.090E-06         616.353
             461    -645.601E-03    -2.53067E-03     706.912E-06        -553.203
             462    -643.874E-03    -1.24335E-03     589.697E-06        -251.813
             463    -643.340E-03     172.150E-06    -68.8786E-06         26.6878
             464    -644.136E-03     1.62889E-03    -552.607E-06         335.063
             465    -645.882E-03     2.93367E-03    -868.121E-06         616.250
             466    -645.104E-03    -2.43412E-03     710.933E-06        -516.034
             467    -643.451E-03    -1.18118E-03     551.753E-06        -232.062
             468    -642.919E-03     191.354E-06    -86.5566E-06         35.5487
             469    -643.715E-03     1.66726E-03    -535.892E-06         346.416
             470    -645.509E-03     2.96058E-03    -893.294E-06         621.968
             471    -643.395E-03    -2.69715E-03     821.827E-06        -566.949
             472    -641.869E-03    -1.36820E-03     436.861E-06        -288.987
             473    -641.350E-03     257.524E-06    -87.5441E-06         48.0278
             474    -642.288E-03     1.71287E-03    -602.172E-06         353.203
             475    -644.115E-03     3.00675E-03    -891.629E-06         632.879
             476    -717.420E-03    -10.4379E-03     2.72721E-03    -2.31205E+03
             477    -714.457E-03    -1.19153E-03    -56.5212E-06        -244.588
             478    -714.134E-03     148.775E-06    -118.889E-06         48.1153
             479    -715.425E-03     1.82921E-03    -751.994E-06         364.480
             480    -717.230E-03     2.44212E-03    -720.479E-06         516.985
             481    -718.455E-03    -2.08257E-03     813.898E-06        -478.721
             482    -716.565E-03    -1.42097E-03     594.403E-06        -307.363
             483    -716.072E-03     353.770E-06    -50.1116E-06         62.8320
             484    -716.993E-03     1.79476E-03    -674.698E-06         364.612
             485    -718.581E-03     2.41373E-03    -653.850E-06         504.323
             486    -718.839E-03    -2.67577E-03     773.748E-06        -572.611
             487    -717.317E-03    -1.31561E-03     548.539E-06        -238.496
             488    -716.520E-03     370.902E-06    -102.639E-06         105.021
             489    -717.567E-03     1.74968E-03    -622.432E-06         356.580
             490    -719.132E-03     2.45650E-03    -655.057E-06         509.380
             491    -718.272E-03    -2.34301E-03     652.923E-06        -496.659
             492    -716.660E-03    -1.37522E-03     592.710E-06        -291.580
             493    -716.099E-03     356.683E-06    -54.1077E-06         62.6206
             494    -717.059E-03     1.81727E-03    -696.829E-06         369.080
             495    -718.677E-03     2.41372E-03    -660.275E-06         505.247
             496    -716.879E-03    -2.50956E-03     786.126E-06        -532.192
             497    -715.204E-03    -1.43935E-03     623.128E-06        -260.366
             498    -714.397E-03     346.622E-06    -164.314E-06         94.9065
             499    -715.732E-03     1.82959E-03    -743.697E-06         362.580
             500    -717.517E-03     2.46103E-03    -726.367E-06         521.836
             501    -800.304E-03    -2.22986E-03     1.68963E-03        -231.764
             502    -794.219E-03    -3.56727E-03     2.33972E-03        -665.474
             503    -792.445E-03     31.9669E-06     275.179E-06         54.0759
             504    -791.424E-03     1.92478E-03    -13.1972E-06         435.739
             505    -792.456E-03     1.81244E-03    -614.204E-06         379.787
             506    -795.132E-03    -3.65831E-03    -179.538E-06        -696.933
             507    -795.056E-03    -941.710E-06     385.901E-06        -118.633
             508    -793.876E-03     611.691E-06     514.334E-06         220.637
             509    -792.872E-03     1.61311E-03     67.6406E-06         392.239
             510    -793.592E-03     1.94736E-03    -523.978E-06         390.655
             511    -794.754E-03    -1.74762E-03     458.272E-06        -316.411
             512    -793.850E-03    -1.95657E-03     40.6144E-06        -457.815
             513    -794.367E-03    -60.9634E-06     198.591E-06         13.3827
             514    -793.158E-03     1.77288E-03     59.8403E-06         448.281
             515    -794.048E-03     1.90827E-03    -491.426E-06         371.072
             516    -793.782E-03    -2.28803E-03     281.588E-06        -507.781
             517    -793.411E-03    -955.792E-06     70.8002E-06        -195.439
             518    -793.181E-03     777.062E-06     194.571E-06         236.425
             519    -792.602E-03     1.62369E-03     10.8723E-06         386.918
             520    -793.382E-03     1.94964E-03    -513.967E-06         393.825
             521    -792.635E-03    -1.76509E-03     599.937E-06        -373.035
             522    -791.460E-03    -2.12972E-03     143.517E-06        -463.849
             523    -791.877E-03    -137.373E-06     68.1655E-06        -12.6033
             524    -791.236E-03     1.99715E-03    -103.164E-06         449.845
             525    -792.329E-03     1.76628E-03    -572.496E-06         371.076
             526    -3.28650E-03    -3.27910E-03     1.09952E-03        -692.579
             527    -2.53031E-03    -2.55109E-03     778.641E-06        -561.261
             528    -1.43491E-03    -1.78405E-03     468.933E-06        -391.393
             529    -1.42889E-03    -2.52503E-03     728.021E-06        -526.749
             530     105.602E-36    -2.52410E-03     50.9317E-12        -713.542
             531     148.651E-36    -1.32605E-03     72.9869E-12        -374.863
             532     115.690E-36    -1.82541E-03     98.2254E-12        -516.028
             533    -248.833E-36    -2.88934E-03     207.365E-12        -816.794
             534     372.268E-06    -1.76158E-03     432.230E-06        -390.819
             535    -1.41534E-03    -3.32830E-03     878.372E-06        -736.667
             536    -301.589E-06    -1.50615E-03     395.117E-06        -344.485
             537    -2.02154E-03    -3.03886E-03     883.536E-06        -690.667
             538    -1.27883E-03    -942.076E-06     278.236E-06        -207.553
             539    -738.918E-06    -131.825E-06     24.5213E-06        -29.1629
             540    -180.461E-06    -974.124E-06     296.194E-06        -199.583
             541     179.437E-36    -896.281E-06     41.8368E-12        -253.372
             542     290.827E-36    -102.803E-06     7.27596E-12        -29.0615
             543     227.408E-36    -560.035E-06     40.0178E-12        -158.317
             544     809.496E-06    -162.836E-06     17.6114E-06        -37.8586
             545     93.2640E-06    -77.2032E-06     8.87968E-06        -18.0867
             546    -1.23404E-03     756.899E-06    -239.843E-06         166.038
             547    -1.29462E-03     1.51076E-03    -411.509E-06         331.261
             548    -94.6128E-06     622.652E-06    -223.003E-06         124.632
             549     185.710E-36     603.817E-06    -26.3753E-12         170.694
             550     170.909E-36     1.13081E-03    -43.6557E-12         319.670
             551     234.613E-36     444.549E-06    -43.2010E-12         125.671
             552     471.604E-06     1.43379E-03    -378.466E-06         316.260
             553    -250.787E-06     1.34761E-03    -366.817E-06         308.224
             554    -2.38282E-03     2.36804E-03    -731.825E-06         521.113
             555    -2.97647E-03     3.01798E-03    -1.01538E-03         638.158
             556    -1.14847E-03     2.17519E-03    -639.442E-06         452.819
             557     116.080E-36     2.21769E-03    -127.329E-12         626.924
             558    -210.771E-36     2.62591E-03    -232.831E-12         742.324
             559     127.569E-36     1.68891E-03    -41.8368E-12         477.443
             560    -1.13124E-03     2.97795E-03    -793.841E-06         659.123
             561    -1.87242E-03     2.86134E-03    -838.594E-06         651.385
             562    -3.95002E-03    -3.20759E-03     1.16913E-03        -683.564
             563    -2.76967E-03    -2.37284E-03     762.474E-06        -524.932
             564    -2.01360E-03    -1.71378E-03     469.275E-06        -384.011
             565     62.8192E-36    -1.06727E-03     67.6437E-12        -301.709
             566     96.4308E-36    -1.85044E-03     74.5786E-12        -523.105
             567    -276.623E-36    -2.67384E-03     116.415E-12        -755.875
             568    -397.929E-06    -1.38965E-03     395.531E-06        -325.560
             569    -2.14390E-03    -2.93104E-03     897.403E-06        -681.454
             570    -1.55058E-03    -818.948E-06     267.546E-06        -180.653
             571    -1.32755E-03    -45.4972E-06     8.45699E-06        -10.0363
             572     184.467E-36    -28.8785E-06    -2.72848E-12        -8.16372
             573     180.379E-36    -519.812E-06     42.2915E-12        -146.947
             574    -29.3777E-06    -15.4614E-12     909.495E-15     119.209E-09
             575    -1.55058E-03     818.948E-06    -267.546E-06         180.653
             576    -1.96492E-03     1.61939E-03    -449.131E-06         363.256
             577     70.0198E-36     1.01146E-03    -65.4836E-12         285.932
             578     180.379E-36     519.812E-06    -40.9273E-12         146.947
             579    -397.929E-06     1.38965E-03    -395.531E-06         325.560
             580    -2.76967E-03     2.37284E-03    -762.474E-06         524.932
             581    -3.84167E-03     3.11888E-03    -1.13966E-03         665.552
             582    -263.688E-36     2.59050E-03    -116.415E-12         732.316
             583     96.4308E-36     1.85044E-03    -72.7596E-12         523.105
             584    -2.14390E-03     2.93104E-03    -897.403E-06         681.454
             585    -3.84167E-03    -3.11888E-03     1.13966E-03        -665.552
             586    -2.38282E-03    -2.36804E-03     731.825E-06        -521.113
             587    -1.96492E-03    -1.61939E-03     449.131E-06        -363.256
             588     70.0198E-36    -1.01146E-03     71.3953E-12        -285.932
             589     127.569E-36    -1.68891E-03     67.3026E-12        -477.443
             590    -263.688E-36    -2.59050E-03     149.157E-12        -732.316
             591    -250.787E-06    -1.34761E-03     366.817E-06        -308.224
             592    -1.87242E-03    -2.86134E-03     838.594E-06        -651.385
             593    -1.23404E-03    -756.899E-06     239.843E-06        -166.038
             594    -1.32755E-03     45.4972E-06    -8.45699E-06         10.0363
             595     184.467E-36     28.8785E-06    -3.63798E-12         8.16372
             596     234.613E-36    -444.549E-06     38.1988E-12        -125.671
             597     93.2640E-06     77.2032E-06    -8.87966E-06         18.0867
             598    -1.27883E-03     942.076E-06    -278.236E-06         207.553
             599    -2.01360E-03     1.71378E-03    -469.275E-06         384.011
             600     62.8192E-36     1.06727E-03    -76.3976E-12         301.709
             601     227.408E-36     560.035E-06    -42.7463E-12         158.317
             602    -301.589E-06     1.50615E-03    -395.117E-06         344.485
             603    -2.53031E-03     2.55109E-03    -778.641E-06         561.261
             604    -3.95002E-03     3.20759E-03    -1.16913E-03         683.564
             605    -276.623E-36     2.67384E-03    -116.415E-12         755.875
             606     115.690E-36     1.82541E-03    -65.4836E-12         516.028
             607    -2.02154E-03     3.03886E-03    -883.536E-06         690.667
             608    -2.97647E-03    -3.01798E-03     1.01538E-03        -638.158
             609    -1.14847E-03    -2.17519E-03     639.442E-06        -452.819
             610    -1.29462E-03    -1.51076E-03     411.509E-06        -331.261
             611     170.909E-36    -1.13081E-03     65.2562E-12        -319.670
             612     116.080E-36    -2.21769E-03     58.2077E-12        -626.924
             613    -210.771E-36    -2.62591E-03     149.157E-12        -742.324
             614     471.604E-06    -1.43379E-03     378.467E-06        -316.260
             615    -1.13124E-03    -2.97795E-03     793.841E-06        -659.123
             616    -94.6129E-06    -622.652E-06     223.003E-06        -124.632
             617    -738.918E-06     131.825E-06    -24.5213E-06         29.1629
             618     290.827E-36     102.802E-06    -5.45697E-12         29.0615
             619     185.710E-36    -603.817E-06     21.8279E-12        -170.694
             620     809.496E-06     162.836E-06    -17.6114E-06         37.8586
             621    -180.461E-06     974.124E-06    -296.194E-06         199.583
             622    -1.43491E-03     1.78405E-03    -468.933E-06         391.393
             623     148.651E-36     1.32605E-03    -65.4836E-12         374.863
             624     179.437E-36     896.281E-06    -50.9317E-12         253.372
             625     372.268E-06     1.76158E-03    -432.230E-06         390.819
             626    -1.42889E-03     2.52503E-03    -728.021E-06         526.749
             627    -3.28650E-03     3.27910E-03    -1.09952E-03         692.579
             628    -248.833E-36     2.88934E-03    -174.623E-12         816.794
             629     105.602E-36     2.52409E-03    -87.3115E-12         713.542
             630    -1.41534E-03     3.32830E-03    -878.372E-06         736.667
             631    -8.78731E-03    -3.30066E-03     961.332E-06        -698.017
             632    -8.31626E-03    -2.51590E-03     764.356E-06        -530.008
             633    -6.88217E-03    -1.73734E-03     541.586E-06        -364.131
             634    -6.78936E-03    -2.45721E-03     754.442E-06        -516.513
             635    -2.80488E-03    -1.68170E-03     523.072E-06        -345.022
             636    -4.68901E-03    -3.20001E-03     1.01416E-03        -655.564
             637    -4.15729E-03    -1.68499E-03     514.433E-06        -358.319
             638    -6.12800E-03    -3.21198E-03     1.08593E-03        -671.583
             639    -6.99254E-03    -912.529E-06     276.100E-06        -191.988
             640    -6.17538E-03    -135.571E-06     37.1040E-06        -28.7351
             641    -5.44765E-03    -945.571E-06     299.046E-06        -198.195
             642    -2.05967E-03    -173.973E-06     42.0916E-06        -36.7898
             643    -3.46292E-03    -89.3329E-06     21.8254E-06        -19.2005
             644    -6.92977E-03     729.986E-06    -225.853E-06         153.532
             645    -6.69549E-03     1.46769E-03    -463.421E-06         307.313
             646    -5.32541E-03     591.280E-06    -200.826E-06         122.816
             647    -2.58208E-03     1.33412E-03    -429.852E-06         272.307
             648    -4.04168E-03     1.50762E-03    -466.387E-06         320.601
             649    -8.12375E-03     2.33784E-03    -712.615E-06         492.705
             650    -8.40686E-03     3.04722E-03    -887.509E-06         644.771
             651    -6.41089E-03     2.10455E-03    -650.023E-06         441.914
             652    -4.21348E-03     2.86317E-03    -904.356E-06         586.557
             653    -5.88468E-03     3.04443E-03    -1.03101E-03         637.287
             654    -9.72978E-03    -3.23131E-03     968.709E-06        -687.324
             655    -8.71787E-03    -2.44028E-03     756.913E-06        -517.230
             656    -7.81728E-03    -1.68850E-03     537.782E-06        -355.695
             657    -4.50295E-03    -1.60799E-03     506.476E-06        -345.609
             658    -6.45964E-03    -3.13151E-03     1.08330E-03        -662.216
             659    -7.42088E-03    -831.033E-06     257.229E-06        -176.160
             660    -7.14581E-03    -46.1686E-06     12.6573E-06        -9.78669
             661    -3.84903E-03     11.3687E-12     1.13687E-12    -476.837E-09
             662    -7.42088E-03     831.033E-06    -257.229E-06         176.160
             663    -7.75391E-03     1.59725E-03    -511.189E-06         336.499
             664    -4.50295E-03     1.60799E-03    -506.476E-06         345.609
             665    -8.71787E-03     2.44028E-03    -756.913E-06         517.230
             666    -9.60134E-03     3.14593E-03    -944.459E-06         669.490
             667    -6.45964E-03     3.13151E-03    -1.08330E-03         662.216
             668    -9.60134E-03    -3.14593E-03     944.459E-06        -669.490
             669    -8.12375E-03    -2.33784E-03     712.615E-06        -492.705
             670    -7.75391E-03    -1.59725E-03     511.189E-06        -336.499
             671    -4.04168E-03    -1.50762E-03     466.387E-06        -320.601
             672    -5.88468E-03    -3.04443E-03     1.03101E-03        -637.287
             673    -6.92977E-03    -729.986E-06     225.853E-06        -153.532
             674    -7.14581E-03     46.1686E-06    -12.6573E-06         9.78668
             675    -3.46292E-03     89.3329E-06    -21.8254E-06         19.2005
             676    -6.99254E-03     912.529E-06    -276.100E-06         191.988
             677    -7.81728E-03     1.68850E-03    -537.782E-06         355.695
             678    -4.15729E-03     1.68499E-03    -514.433E-06         358.319
             679    -8.31626E-03     2.51590E-03    -764.356E-06         530.008
             680    -9.72978E-03     3.23131E-03    -968.709E-06         687.324
             681    -6.12800E-03     3.21198E-03    -1.08593E-03         671.583
             682    -8.40686E-03    -3.04722E-03     887.509E-06        -644.771
             683    -6.41089E-03    -2.10455E-03     650.023E-06        -441.914
             684    -6.69549E-03    -1.46769E-03     463.421E-06        -307.313
             685    -2.58208E-03    -1.33412E-03     429.852E-06        -272.307
             686    -4.21348E-03    -2.86317E-03     904.356E-06        -586.557
             687    -5.32541E-03    -591.280E-06     200.826E-06        -122.816
             688    -6.17538E-03     135.571E-06    -37.1041E-06         28.7351
             689    -2.05967E-03     173.973E-06    -42.0916E-06         36.7898
             690    -5.44765E-03     945.571E-06    -299.046E-06         198.195
             691    -6.88217E-03     1.73734E-03    -541.586E-06         364.131
             692    -2.80488E-03     1.68170E-03    -523.072E-06         345.022
             693    -6.78936E-03     2.45721E-03    -754.442E-06         516.513
             694    -8.78731E-03     3.30066E-03    -961.332E-06         698.017
             695    -4.68901E-03     3.20001E-03    -1.01416E-03         655.564
             696    -18.3508E-03    -3.34140E-03     1.00777E-03        -701.486
             697    -17.9192E-03    -2.50199E-03     754.820E-06        -525.681
             698    -16.4501E-03    -1.72915E-03     518.829E-06        -363.208
             699    -16.2621E-03    -2.55552E-03     770.571E-06        -535.373
             700    -10.1901E-03    -1.74560E-03     540.238E-06        -366.381
             701    -12.1033E-03    -3.31231E-03     984.928E-06        -697.173
             702    -11.8157E-03    -1.71561E-03     523.167E-06        -360.062
             703    -13.7082E-03    -3.30237E-03     984.123E-06        -695.696
             704    -16.6414E-03    -894.027E-06     269.722E-06        -187.698
             705    -15.7476E-03    -135.098E-06     39.7600E-06        -28.4263
             706    -14.9325E-03    -969.812E-06     294.385E-06        -202.958
             707    -9.44858E-03    -178.842E-06     51.3942E-06        -37.7977
             708    -11.1328E-03    -91.0001E-06     26.2339E-06        -19.1280
             709    -16.5747E-03     714.283E-06    -216.271E-06         149.915
             710    -16.2507E-03     1.46099E-03    -439.095E-06         306.867
             711    -14.8005E-03     610.951E-06    -188.583E-06         127.569
             712    -9.93145E-03     1.38834E-03    -434.450E-06         291.110
             713    -11.6844E-03     1.53502E-03    -469.790E-06         322.161
             714    -17.7192E-03     2.32476E-03    -701.766E-06         488.454
             715    -17.9521E-03     3.07726E-03    -927.818E-06         646.160
             716    -15.8647E-03     2.19892E-03    -664.023E-06         460.504
             717    -11.5801E-03     2.96365E-03    -880.756E-06         623.786
             718    -13.4460E-03     3.12826E-03    -933.516E-06         659.169
             719    -19.3857E-03    -3.27365E-03     996.762E-06        -687.684
             720    -18.3865E-03    -2.43176E-03     735.111E-06        -511.672
             721    -17.5211E-03    -1.66237E-03     500.160E-06        -349.424
             722    -12.2768E-03    -1.63800E-03     507.922E-06        -344.303
             723    -14.1346E-03    -3.21915E-03     970.613E-06        -680.356
             724    -17.1624E-03    -812.152E-06     245.837E-06        -170.617
             725    -16.8750E-03    -45.1197E-06     13.3842E-06        -9.47876
             726    -11.6496E-03     27.7396E-12    -66.1657E-12    -3.81470E-06
             727    -17.1624E-03     812.152E-06    -245.837E-06         170.617
             728    -17.4541E-03     1.57302E-03    -473.488E-06         330.668
             729    -12.2768E-03     1.63800E-03    -507.922E-06         344.303
             730    -18.3865E-03     2.43176E-03    -735.111E-06         511.672
             731    -19.2524E-03     3.18583E-03    -970.245E-06         669.321
             732    -14.1346E-03     3.21915E-03    -970.613E-06         680.357
             733    -19.2524E-03    -3.18583E-03     970.245E-06        -669.321
             734    -17.7192E-03    -2.32476E-03     701.766E-06        -488.454
             735    -17.4541E-03    -1.57302E-03     473.488E-06        -330.668
             736    -11.6844E-03    -1.53502E-03     469.790E-06        -322.161
             737    -13.4460E-03    -3.12826E-03     933.516E-06        -659.169
             738    -16.5747E-03    -714.283E-06     216.271E-06        -149.915
             739    -16.8750E-03     45.1196E-06    -13.3844E-06         9.47875
             740    -11.1328E-03     91.0001E-06    -26.2340E-06         19.1280
             741    -16.6414E-03     894.027E-06    -269.723E-06         187.698
             742    -17.5211E-03     1.66237E-03    -500.160E-06         349.424
             743    -11.8157E-03     1.71561E-03    -523.167E-06         360.062
             744    -17.9192E-03     2.50199E-03    -754.820E-06         525.681
             745    -19.3857E-03     3.27365E-03    -996.762E-06         687.684
             746    -13.7082E-03     3.30237E-03    -984.123E-06         695.696
             747    -17.9521E-03    -3.07726E-03     927.818E-06        -646.159
             748    -15.8647E-03    -2.19892E-03     664.023E-06        -460.504
             749    -16.2506E-03    -1.46099E-03     439.095E-06        -306.867
             750    -9.93145E-03    -1.38834E-03     434.450E-06        -291.110
             751    -11.5801E-03    -2.96365E-03     880.756E-06        -623.786
             752    -14.8005E-03    -610.951E-06     188.583E-06        -127.569
             753    -15.7476E-03     135.098E-06    -39.7603E-06         28.4263
             754    -9.44858E-03     178.842E-06    -51.3943E-06         37.7977
             755    -14.9325E-03     969.812E-06    -294.385E-06         202.958
             756    -16.4501E-03     1.72915E-03    -518.829E-06         363.208
             757    -10.1901E-03     1.74560E-03    -540.238E-06         366.381
             758    -16.2621E-03     2.55552E-03    -770.571E-06         535.373
             759    -18.3508E-03     3.34140E-03    -1.00777E-03         701.486
             760    -12.1033E-03     3.31232E-03    -984.928E-06         697.173
             761    -31.9589E-03    -3.34367E-03     1.00106E-03        -702.422
             762    -31.5523E-03    -2.50018E-03     749.879E-06        -524.999
             763    -30.0549E-03    -1.73638E-03     521.100E-06        -364.628
             764    -29.8579E-03    -2.57753E-03     773.953E-06        -541.403
             765    -21.7370E-03    -1.76946E-03     532.466E-06        -371.284
             766    -23.6676E-03    -3.37555E-03     1.01423E-03        -708.355
             767    -23.4471E-03    -1.69667E-03     508.618E-06        -356.387
             768    -25.3253E-03    -3.30615E-03     996.222E-06        -694.237
             769    -30.2801E-03    -893.542E-06     267.912E-06        -187.605
             770    -29.3534E-03    -134.261E-06     40.2715E-06        -28.1925
             771    -28.5226E-03    -978.078E-06     294.236E-06        -205.417
             772    -21.0022E-03    -179.159E-06     53.2523E-06        -37.6374
             773    -22.7762E-03    -89.7448E-06     26.8641E-06        -18.8500
             774    -30.2129E-03     714.493E-06    -214.194E-06         150.006
             775    -29.8538E-03     1.46847E-03    -440.673E-06         308.372
             776    -28.3887E-03     620.316E-06    -187.207E-06         130.238
             777    -21.4702E-03     1.41193E-03    -425.655E-06         296.206
             778    -23.3129E-03     1.51807E-03    -455.073E-06         318.872
             779    -31.3511E-03     2.32214E-03    -696.474E-06         487.610
             780    -31.5574E-03     3.07709E-03    -921.267E-06         646.429
             781    -29.4563E-03     2.22082E-03    -666.948E-06         466.467
             782    -23.1338E-03     3.02023E-03    -907.348E-06         633.792
             783    -25.0579E-03     3.12941E-03    -943.128E-06         657.154
             784    -33.0198E-03    -3.26426E-03     978.280E-06        -685.935
             785    -32.0439E-03    -2.41670E-03     725.469E-06        -507.465
             786    -31.1740E-03    -1.65611E-03     496.906E-06        -347.771
             787    -23.9595E-03    -1.61541E-03     485.153E-06        -339.300
             788    -25.7803E-03    -3.22486E-03     974.279E-06        -677.473
             789    -30.8342E-03    -806.800E-06     241.961E-06        -169.367
             790    -30.5361E-03    -44.8223E-06     13.4787E-06        -9.40929
             791    -23.3515E-03     12.2782E-12    -210.093E-12    -8.94070E-06
             792    -30.8342E-03     806.800E-06    -241.961E-06         169.367
             793    -31.1068E-03     1.56677E-03    -470.054E-06         329.015
             794    -23.9595E-03     1.61541E-03    -485.153E-06         339.300
             795    -32.0439E-03     2.41670E-03    -725.469E-06         507.464
             796    -32.8858E-03     3.17546E-03    -951.743E-06         667.287
             797    -25.7803E-03     3.22486E-03    -974.279E-06         677.473
             798    -32.8858E-03    -3.17546E-03     951.743E-06        -667.287
             799    -31.3510E-03    -2.32214E-03     696.474E-06        -487.611
             800    -31.1068E-03    -1.56677E-03     470.054E-06        -329.015
             801    -23.3129E-03    -1.51807E-03     455.073E-06        -318.872
             802    -25.0579E-03    -3.12941E-03     943.128E-06        -657.154
             803    -30.2129E-03    -714.493E-06     214.194E-06        -150.006
             804    -30.5361E-03     44.8224E-06    -13.4794E-06         9.40929
             805    -22.7762E-03     89.7451E-06    -26.8646E-06         18.8500
             806    -30.2801E-03     893.542E-06    -267.913E-06         187.605
             807    -31.1740E-03     1.65611E-03    -496.907E-06         347.771
             808    -23.4471E-03     1.69667E-03    -508.619E-06         356.387
             809    -31.5523E-03     2.50018E-03    -749.879E-06         524.999
             810    -33.0198E-03     3.26426E-03    -978.280E-06         685.935
             811    -25.3253E-03     3.30615E-03    -996.222E-06         694.237
             812    -31.5574E-03    -3.07709E-03     921.268E-06        -646.429
             813    -29.4563E-03    -2.22082E-03     666.948E-06        -466.467
             814    -29.8538E-03    -1.46847E-03     440.673E-06        -308.372
             815    -21.4702E-03    -1.41193E-03     425.655E-06        -296.206
             816    -23.1338E-03    -3.02022E-03     907.348E-06        -633.792
             817    -28.3887E-03    -620.316E-06     187.206E-06        -130.238
             818    -29.3534E-03     134.262E-06    -40.2725E-06         28.1926
             819    -21.0022E-03     179.159E-06    -53.2529E-06         37.6375
             820    -28.5226E-03     978.079E-06    -294.237E-06         205.417
             821    -30.0549E-03     1.73638E-03    -521.100E-06         364.628
             822    -21.7370E-03     1.76946E-03    -532.467E-06         371.284
             823    -29.8579E-03     2.57753E-03    -773.953E-06         541.403
             824    -31.9589E-03     3.34367E-03    -1.00106E-03         702.422
             825    -23.6676E-03     3.37555E-03    -1.01423E-03         708.355
             826    -49.6048E-03    -3.34727E-03     1.00424E-03        -702.905
             827    -49.2015E-03    -2.50021E-03     749.952E-06        -525.027
             828    -47.6978E-03    -1.73977E-03     521.743E-06        -365.357
             829    -47.4969E-03    -2.58681E-03     776.182E-06        -543.195
             830    -37.3542E-03    -1.78040E-03     534.883E-06        -373.893
             831    -39.2929E-03    -3.38605E-03     1.01566E-03        -711.123
             832    -39.0879E-03    -1.69691E-03     508.698E-06        -356.325
             833    -40.9626E-03    -3.30422E-03     990.637E-06        -693.920
             834    -47.9297E-03    -892.838E-06     267.738E-06        -187.482
             835    -46.9953E-03    -134.062E-06     40.2470E-06        -28.1505
             836    -46.1588E-03    -981.041E-06     294.457E-06        -205.995
             837    -36.6183E-03    -178.810E-06     53.6088E-06        -37.5562
             838    -38.4185E-03    -89.5001E-06     26.8960E-06        -18.7914
             839    -47.8625E-03     714.134E-06    -214.064E-06         149.958
             840    -47.4966E-03     1.47188E-03    -441.348E-06         309.102
             841    -46.0248E-03     623.702E-06    -187.252E-06         130.959
             842    -37.0862E-03     1.42315E-03    -427.674E-06         298.867
             843    -38.9536E-03     1.51829E-03    -455.044E-06         318.817
             844    -49.0004E-03     2.32179E-03    -696.407E-06         487.557
             845    -49.2028E-03     3.07968E-03    -923.948E-06         646.715
             846    -47.0950E-03     2.22976E-03    -669.054E-06         468.216
             847    -38.7572E-03     3.02962E-03    -908.758E-06         636.268
             848    -40.6946E-03     3.12625E-03    -937.335E-06         656.544
             849    -50.6736E-03    -3.26065E-03     978.588E-06        -684.685
             850    -49.7008E-03    -2.41314E-03     723.808E-06        -506.712
             851    -48.8312E-03    -1.65298E-03     495.564E-06        -347.097
             852    -39.6166E-03    -1.61101E-03     483.002E-06        -338.246
             853    -41.4276E-03    -3.21859E-03     965.284E-06        -676.013
             854    -48.4948E-03    -804.416E-06     241.157E-06        -168.889
             855    -48.1950E-03    -44.6896E-06     13.4328E-06        -9.38274
             856    -39.0133E-03     80.4903E-12    -532.509E-12     3.93391E-06
             857    -48.4948E-03     804.416E-06    -241.158E-06         168.889
             858    -48.7641E-03     1.56370E-03    -468.755E-06         328.350
             859    -39.6166E-03     1.61101E-03    -483.003E-06         338.246
             860    -49.7008E-03     2.41314E-03    -723.808E-06         506.711
             861    -50.5395E-03     3.17150E-03    -951.838E-06         665.964
             862    -41.4276E-03     3.21859E-03    -965.284E-06         676.013
             863    -50.5395E-03    -3.17150E-03     951.839E-06        -665.965
             864    -49.0004E-03    -2.32179E-03     696.408E-06        -487.557
             865    -48.7641E-03    -1.56370E-03     468.754E-06        -328.350
             866    -38.9536E-03    -1.51829E-03     455.043E-06        -318.817
             867    -40.6946E-03    -3.12625E-03     937.335E-06        -656.545
             868    -47.8625E-03    -714.133E-06     214.063E-06        -149.958
             869    -48.1950E-03     44.6901E-06    -13.4344E-06         9.38279
             870    -38.4185E-03     89.5010E-06    -26.8973E-06         18.7916
             871    -47.9296E-03     892.840E-06    -267.739E-06         187.483
             872    -48.8312E-03     1.65298E-03    -495.565E-06         347.097
             873    -39.0878E-03     1.69691E-03    -508.699E-06         356.325
             874    -49.2015E-03     2.50021E-03    -749.953E-06         525.027
             875    -50.6736E-03     3.26065E-03    -978.587E-06         684.684
             876    -40.9626E-03     3.30422E-03    -990.637E-06         693.920
             877    -49.2028E-03    -3.07968E-03     923.949E-06        -646.716
             878    -47.0950E-03    -2.22976E-03     669.054E-06        -468.216
             879    -47.4966E-03    -1.47188E-03     441.347E-06        -309.102
             880    -37.0862E-03    -1.42315E-03     427.673E-06        -298.867
             881    -38.7572E-03    -3.02962E-03     908.758E-06        -636.268
             882    -46.0247E-03    -623.699E-06     187.250E-06        -130.959
             883    -46.9953E-03     134.065E-06    -40.2491E-06         28.1509
             884    -36.6183E-03     178.812E-06    -53.6106E-06         37.5565
             885    -46.1588E-03     981.045E-06    -294.459E-06         205.996
             886    -47.6978E-03     1.73977E-03    -521.745E-06         365.357
             887    -37.3542E-03     1.78040E-03    -534.884E-06         373.893
             888    -47.4969E-03     2.58682E-03    -776.182E-06         543.196
             889    -49.6048E-03     3.34727E-03    -1.00424E-03         702.906
             890    -39.2929E-03     3.38605E-03    -1.01566E-03         711.123
             891    -71.2712E-03    -3.34789E-03     1.00422E-03        -703.065
             892    -70.8692E-03    -2.50003E-03     749.909E-06        -524.993
             893    -69.3631E-03    -1.74074E-03     522.178E-06        -365.556
             894    -69.1622E-03    -2.58875E-03     776.654E-06        -543.652
             895    -57.0069E-03    -1.78447E-03     535.461E-06        -374.730
             896    -58.9481E-03    -3.39165E-03     1.01761E-03        -712.228
             897    -58.7465E-03    -1.69645E-03     508.729E-06        -356.249
             898    -60.6213E-03    -3.30382E-03     991.213E-06        -693.778
             899    -69.5971E-03    -892.865E-06     267.809E-06        -187.495
             900    -68.6602E-03    -133.955E-06     40.2062E-06        -28.1289
             901    -67.8232E-03    -981.922E-06     294.617E-06        -206.207
             902    -56.2705E-03    -178.648E-06     53.6062E-06        -37.5142
             903    -58.0771E-03    -89.3441E-06     26.8313E-06        -18.7606
             904    -69.5301E-03     714.255E-06    -214.200E-06         149.988
             905    -69.1621E-03     1.47288E-03    -441.798E-06         309.307
             906    -67.6892E-03     624.739E-06    -187.443E-06         131.199
             907    -56.7389E-03     1.42730E-03    -428.295E-06         299.726
             908    -58.6124E-03     1.51787E-03    -455.129E-06         318.749
             909    -70.6682E-03     2.32149E-03    -696.342E-06         487.500
             910    -70.8693E-03     3.08009E-03    -923.893E-06         646.825
             911    -68.7604E-03     2.23165E-03    -669.513E-06         468.659
             912    -58.4123E-03     3.03463E-03    -910.500E-06         637.257
             913    -60.3533E-03     3.12539E-03    -937.688E-06         656.307
             914    -72.3420E-03    -3.25935E-03     977.638E-06        -684.463
             915    -71.3708E-03    -2.41124E-03     723.263E-06        -506.331
             916    -70.5004E-03    -1.65215E-03     495.521E-06        -346.939
             917    -59.2805E-03    -1.60821E-03     482.197E-06        -337.693
             918    -61.0891E-03    -3.21572E-03     964.794E-06        -675.264
             919    -70.1654E-03    -803.796E-06     241.065E-06        -168.781
             920    -69.8643E-03    -44.6546E-06     13.4072E-06        -9.37659
             921    -58.6778E-03     333.785E-12    -918.362E-12     44.1074E-06
             922    -70.1654E-03     803.796E-06    -241.066E-06         168.781
             923    -70.4334E-03     1.56287E-03    -468.724E-06         328.189
             924    -59.2805E-03     1.60821E-03    -482.197E-06         337.693
             925    -71.3708E-03     2.41124E-03    -723.261E-06         506.329
             926    -72.2080E-03     3.17009E-03    -950.864E-06         665.716
             927    -61.0891E-03     3.21572E-03    -964.792E-06         675.264
             928    -72.2080E-03    -3.17010E-03     950.868E-06        -665.718
             929    -70.6682E-03    -2.32149E-03     696.345E-06        -487.501
             930    -70.4334E-03    -1.56287E-03     468.724E-06        -328.190
             931    -58.6124E-03    -1.51787E-03     455.130E-06        -318.749
             932    -60.3533E-03    -3.12539E-03     937.691E-06        -656.309
             933    -69.5301E-03    -714.255E-06     214.200E-06        -149.988
             934    -69.8643E-03     44.6563E-06    -13.4091E-06         9.37686
             935    -58.0771E-03     89.3463E-06    -26.8336E-06         18.7610
             936    -69.5971E-03     892.870E-06    -267.811E-06         187.496
             937    -70.5004E-03     1.65215E-03    -495.522E-06         346.939
             938    -58.7465E-03     1.69645E-03    -508.731E-06         356.249
             939    -70.8692E-03     2.50003E-03    -749.911E-06         524.993
             940    -72.3420E-03     3.25935E-03    -977.637E-06         684.461
             941    -60.6213E-03     3.30382E-03    -991.213E-06         693.778
             942    -70.8693E-03    -3.08010E-03     923.896E-06        -646.827
             943    -68.7603E-03    -2.23165E-03     669.513E-06        -468.659
             944    -69.1621E-03    -1.47289E-03     441.798E-06        -309.308
             945    -56.7389E-03    -1.42730E-03     428.293E-06        -299.726
             946    -58.4123E-03    -3.03463E-03     910.501E-06        -637.258
             947    -67.6892E-03    -624.733E-06     187.440E-06        -131.198
             948    -68.6601E-03     133.961E-06    -40.2091E-06         28.1301
             949    -56.2705E-03     178.654E-06    -53.6097E-06         37.5153
             950    -67.8232E-03     981.933E-06    -294.620E-06         206.210
             951    -69.3631E-03     1.74075E-03    -522.181E-06         365.558
             952    -57.0069E-03     1.78448E-03    -535.463E-06         374.732
             953    -69.1622E-03     2.58876E-03    -776.656E-06         543.654
             954    -71.2712E-03     3.34789E-03    -1.00422E-03         703.066
             955    -58.9481E-03     3.39165E-03    -1.01761E-03         712.229
             956    -96.9566E-03    -3.34817E-03     1.00445E-03        -703.112
             957    -96.5547E-03    -2.50000E-03     749.977E-06        -524.997
             958    -95.0482E-03    -1.74100E-03     522.289E-06        -365.610
             959    -94.8472E-03    -2.58924E-03     776.775E-06        -543.740
             960    -80.6821E-03    -1.78544E-03     535.682E-06        -374.944
             961    -82.6240E-03    -3.39256E-03     1.01777E-03        -712.440
             962    -82.4230E-03    -1.69644E-03     508.869E-06        -356.248
             963    -84.2979E-03    -3.30360E-03     991.002E-06        -693.751
             964    -95.2825E-03    -892.852E-06     267.843E-06        -187.497
             965    -94.3451E-03    -133.932E-06     40.1887E-06        -28.1249
             966    -93.5080E-03    -982.111E-06     294.645E-06        -206.243
             967    -79.9455E-03    -178.585E-06     53.5853E-06        -37.5024
             968    -81.7534E-03    -89.3009E-06     26.8012E-06        -18.7525
             969    -95.2155E-03     714.276E-06    -214.257E-06         149.997
             970    -94.8472E-03     1.47315E-03    -441.925E-06         309.361
             971    -93.3740E-03     624.973E-06    -187.489E-06         131.245
             972    -80.4142E-03     1.42830E-03    -428.528E-06         299.945
             973    -82.2890E-03     1.51787E-03    -455.286E-06         318.748
             974    -96.3538E-03     2.32143E-03    -696.401E-06         487.498
             975    -96.5547E-03     3.08030E-03    -924.089E-06         646.860
             976    -94.4454E-03     2.23210E-03    -669.632E-06         468.743
             977    -82.0882E-03     3.03544E-03    -910.643E-06         637.446
             978    -84.0299E-03     3.12505E-03    -937.442E-06         656.255
             979    -98.0279E-03    -3.25901E-03     977.695E-06        -684.383
             980    -97.0568E-03    -2.41085E-03     723.219E-06        -506.268
             981    -96.1864E-03    -1.65186E-03     495.517E-06        -346.884
             982    -82.9583E-03    -1.60745E-03     482.140E-06        -337.552
             983    -84.7664E-03    -3.21463E-03     964.286E-06        -675.064
             984    -95.8515E-03    -803.620E-06     241.063E-06        -168.755
             985    -95.5502E-03    -44.6436E-06     13.3985E-06        -9.37487
             986    -82.3556E-03     1.05183E-09    -237.151E-12     172.734E-06
             987    -95.8515E-03     803.621E-06    -241.060E-06         168.755
             988    -96.1194E-03     1.56257E-03    -468.725E-06         328.134
             989    -82.9583E-03     1.60745E-03    -482.140E-06         337.551
             990    -97.0568E-03     2.41084E-03    -723.215E-06         506.266
             991    -97.8939E-03     3.16971E-03    -950.904E-06         665.630
             992    -84.7664E-03     3.21462E-03    -964.282E-06         675.062
             993    -97.8939E-03    -3.16974E-03     950.913E-06        -665.635
             994    -96.3538E-03    -2.32145E-03     696.410E-06        -487.502
             995    -96.1194E-03    -1.56258E-03     468.730E-06        -328.136
             996    -82.2890E-03    -1.51788E-03     455.289E-06        -318.750
             997    -84.0299E-03    -3.12507E-03     937.449E-06        -656.259
             998    -95.2155E-03    -714.279E-06     214.262E-06        -149.997
             999    -95.5502E-03     44.6476E-06    -13.3957E-06         9.37573
            1000    -81.7534E-03     89.3044E-06    -26.8019E-06         18.7532
            1001    -95.2824E-03     892.862E-06    -267.842E-06         187.499
            1002    -96.1863E-03     1.65186E-03    -495.517E-06         346.885
            1003    -82.4229E-03     1.69645E-03    -508.872E-06         356.250
            1004    -96.5547E-03     2.50001E-03    -749.978E-06         524.999
            1005    -98.0278E-03     3.25900E-03    -977.691E-06         684.381
            1006    -84.2978E-03     3.30360E-03    -991.002E-06         693.751
            1007    -96.5547E-03    -3.08033E-03     924.099E-06        -646.866
            1008    -94.4454E-03    -2.23211E-03     669.635E-06        -468.745
            1009    -94.8472E-03    -1.47316E-03     441.930E-06        -309.363
            1010    -80.4142E-03    -1.42830E-03     428.526E-06        -299.945
            1011    -82.0882E-03    -3.03545E-03     910.647E-06        -637.449
            1012    -93.3740E-03    -624.967E-06     187.491E-06        -131.244
            1013    -94.3450E-03     133.940E-06    -40.1859E-06         28.1270
            1014    -79.9455E-03     178.596E-06    -53.5878E-06         37.5047
            1015    -93.5079E-03     982.134E-06    -294.645E-06         206.248
            1016    -95.0481E-03     1.74102E-03    -522.293E-06         365.614
            1017    -80.6821E-03     1.78546E-03    -535.686E-06         374.948
            1018    -94.8472E-03     2.58926E-03    -776.780E-06         543.746
            1019    -96.9565E-03     3.34817E-03    -1.00445E-03         703.113
            1020    -82.6240E-03     3.39256E-03    -1.01778E-03         712.443
            1021    -126.660E-03    -3.34820E-03     1.00445E-03        -703.123
            1022    -126.258E-03    -2.49998E-03     749.991E-06        -524.996
            1023    -124.752E-03    -1.74105E-03     522.320E-06        -365.620
            1024    -124.551E-03    -2.58927E-03     776.786E-06        -543.747
            1025    -108.376E-03    -1.78567E-03     535.716E-06        -374.990
            1026    -110.318E-03    -3.39283E-03     1.01786E-03        -712.495
            1027    -110.117E-03    -1.69642E-03     508.912E-06        -356.247
            1028    -111.992E-03    -3.30357E-03     991.066E-06        -693.748
            1029    -124.986E-03    -892.850E-06     267.863E-06        -187.498
            1030    -124.048E-03    -133.931E-06     40.1963E-06        -28.1243
            1031    -123.211E-03    -982.136E-06     294.659E-06        -206.247
            1032    -107.640E-03    -178.572E-06     53.5825E-06        -37.4993
            1033    -109.448E-03    -89.2890E-06     26.7957E-06        -18.7503
            1034    -124.919E-03     714.276E-06    -214.266E-06         149.998
            1035    -124.551E-03     1.47319E-03    -441.946E-06         309.370
            1036    -123.077E-03     624.998E-06    -187.486E-06         131.251
            1037    -108.108E-03     1.42854E-03    -428.567E-06         299.993
            1038    -109.983E-03     1.51785E-03    -455.332E-06         318.747
            1039    -126.057E-03     2.32141E-03    -696.408E-06         487.494
            1040    -126.258E-03     3.08031E-03    -924.084E-06         646.865
            1041    -124.149E-03     2.23214E-03    -669.639E-06         468.751
            1042    -109.783E-03     3.03568E-03    -910.716E-06         637.493
            1043    -111.724E-03     3.12499E-03    -937.488E-06         656.244
            1044    -127.731E-03    -3.25893E-03     977.668E-06        -684.375
            1045    -126.760E-03    -2.41072E-03     723.212E-06        -506.250
            1046    -125.890E-03    -1.65179E-03     495.533E-06        -346.874
            1047    -110.653E-03    -1.60720E-03     482.137E-06        -337.510
            1048    -112.461E-03    -3.21436E-03     964.295E-06        -675.011
            1049    -125.555E-03    -803.575E-06     241.078E-06        -168.750
            1050    -125.254E-03    -44.6402E-06     13.4066E-06        -9.37400
            1051    -110.050E-03     2.26692E-09     5.51859E-09     445.008E-06
            1052    -125.555E-03     803.582E-06    -241.058E-06         168.751
            1053    -125.823E-03     1.56251E-03    -468.734E-06         328.125
            1054    -110.653E-03     1.60721E-03    -482.130E-06         337.510
            1055    -126.760E-03     2.41073E-03    -723.200E-06         506.249
            1056    -127.597E-03     3.16963E-03    -950.869E-06         665.620
            1057    -112.461E-03     3.21435E-03    -964.285E-06         675.008
            1058    -127.597E-03    -3.16966E-03     950.890E-06        -665.629
            1059    -126.057E-03    -2.32145E-03     696.432E-06        -487.503
            1060    -125.823E-03    -1.56252E-03     468.753E-06        -328.127
            1061    -109.983E-03    -1.51787E-03     455.345E-06        -318.751
            1062    -111.724E-03    -3.12503E-03     937.506E-06        -656.254
            1063    -124.919E-03    -714.295E-06     214.295E-06        -150.001
            1064    -125.254E-03     44.6454E-06    -13.3800E-06         9.37592
            1065    -109.448E-03     89.2885E-06    -26.7830E-06         18.7507
            1066    -124.986E-03     892.864E-06    -267.844E-06         187.501
            1067    -125.890E-03     1.65181E-03    -495.525E-06         346.878
            1068    -110.117E-03     1.69644E-03    -508.913E-06         356.252
            1069    -126.258E-03     2.50002E-03    -749.993E-06         525.003
            1070    -127.731E-03     3.25894E-03    -977.663E-06         684.375
            1071    -111.992E-03     3.30358E-03    -991.069E-06         693.750
            1072    -126.258E-03    -3.08039E-03     924.111E-06        -646.883
            1073    -124.149E-03    -2.23218E-03     669.655E-06        -468.757
            1074    -124.550E-03    -1.47323E-03     441.974E-06        -309.378
            1075    -108.108E-03    -1.42856E-03     428.575E-06        -299.996
            1076    -109.783E-03    -3.03573E-03     910.725E-06        -637.503
            1077    -123.077E-03    -625.015E-06     187.518E-06        -131.252
            1078    -124.048E-03     133.925E-06    -40.1626E-06         28.1253
            1079    -107.640E-03     178.578E-06    -53.5683E-06         37.5017
            1080    -123.211E-03     982.161E-06    -294.634E-06         206.256
            1081    -124.751E-03     1.74109E-03    -522.316E-06         365.628
            1082    -108.376E-03     1.78571E-03    -535.718E-06         374.999
            1083    -124.550E-03     2.58933E-03    -776.795E-06         543.762
            1084    -126.660E-03     3.34822E-03    -1.00446E-03         703.126
            1085    -110.318E-03     3.39286E-03    -1.01787E-03         712.501
            1086    -160.381E-03    -3.34818E-03     1.00445E-03        -703.119
            1087    -159.980E-03    -2.49994E-03     749.997E-06        -524.989
            1088    -158.473E-03    -1.74105E-03     522.340E-06        -365.619
            1089    -158.272E-03    -2.58924E-03     776.788E-06        -543.739
            1090    -140.089E-03    -1.78570E-03     535.730E-06        -374.995
            1091    -142.031E-03    -3.39283E-03     1.01785E-03        -712.495
            1092    -141.830E-03    -1.69640E-03     508.932E-06        -356.244
            1093    -143.705E-03    -3.30354E-03     991.059E-06        -693.743
            1094    -158.707E-03    -892.854E-06     267.893E-06        -187.498
            1095    -157.770E-03    -133.966E-06     40.2428E-06        -28.1292
            1096    -156.933E-03    -982.165E-06     294.701E-06        -206.251
            1097    -139.352E-03    -178.596E-06     53.6127E-06        -37.5027
            1098    -141.160E-03    -89.2977E-06     26.8163E-06        -18.7514
            1099    -158.640E-03     714.252E-06    -214.237E-06         149.994
            1100    -158.272E-03     1.47316E-03    -441.921E-06         309.365
            1101    -156.799E-03     624.943E-06    -187.437E-06         131.242
            1102    -139.821E-03     1.42854E-03    -428.552E-06         299.994
            1103    -141.696E-03     1.51783E-03    -455.331E-06         318.745
            1104    -159.778E-03     2.32139E-03    -696.399E-06         487.492
            1105    -159.979E-03     3.08027E-03    -924.081E-06         646.855
            1106    -157.870E-03     2.23210E-03    -669.619E-06         468.743
            1107    -141.495E-03     3.03567E-03    -910.706E-06         637.490
            1108    -143.437E-03     3.12496E-03    -937.475E-06         656.239
            1109    -161.453E-03    -3.25886E-03     977.668E-06        -684.365
            1110    -160.482E-03    -2.41066E-03     723.219E-06        -506.241
            1111    -159.611E-03    -1.65174E-03     495.549E-06        -346.866
            1112    -142.365E-03    -1.60713E-03     482.152E-06        -337.498
            1113    -144.173E-03    -3.21426E-03     964.281E-06        -674.997
            1114    -159.276E-03    -803.562E-06     241.106E-06        -168.748
            1115    -158.975E-03    -44.6438E-06     13.4414E-06        -9.37325
            1116    -141.763E-03     1.47202E-09     26.8667E-09     582.933E-06
            1117    -159.276E-03     803.576E-06    -241.033E-06         168.750
            1118    -159.544E-03     1.56250E-03    -468.719E-06         328.124
            1119    -142.365E-03     1.60717E-03    -482.126E-06         337.503
            1120    -160.481E-03     2.41075E-03    -723.200E-06         506.254
            1121    -161.319E-03     3.16964E-03    -950.874E-06         665.618
            1122    -144.173E-03     3.21431E-03    -964.271E-06         675.001
            1123    -161.319E-03    -3.16963E-03     950.896E-06        -665.625
            1124    -159.779E-03    -2.32145E-03     696.454E-06        -487.506
            1125    -159.544E-03    -1.56249E-03     468.777E-06        -328.124
            1126    -141.696E-03    -1.51788E-03     455.378E-06        -318.754
            1127    -143.437E-03    -3.12503E-03     937.508E-06        -656.257
            1128    -158.640E-03    -714.327E-06     214.337E-06        -150.007
            1129    -158.975E-03     44.6375E-06    -13.3406E-06         9.37592
            1130    -141.160E-03     89.2691E-06    -26.7525E-06         18.7477
            1131    -158.707E-03     892.854E-06    -267.816E-06         187.501
            1132    -159.611E-03     1.65182E-03    -495.516E-06         346.882
            1133    -141.830E-03     1.69645E-03    -508.918E-06         356.255
            1134    -159.979E-03     2.50006E-03    -750.002E-06         525.012
            1135    -161.452E-03     3.25898E-03    -977.681E-06         684.382
            1136    -143.705E-03     3.30361E-03    -991.074E-06         693.756
            1137    -159.979E-03    -3.08044E-03     924.133E-06        -646.894
            1138    -157.870E-03    -2.23222E-03     669.678E-06        -468.765
            1139    -158.272E-03    -1.47328E-03     442.014E-06        -309.388
            1140    -139.821E-03    -1.42862E-03     428.602E-06        -300.010
            1141    -141.495E-03    -3.03578E-03     910.730E-06        -637.514
            1142    -156.798E-03    -625.084E-06     187.570E-06        -131.264
            1143    -157.769E-03     133.881E-06    -40.1087E-06         28.1188
            1144    -139.352E-03     178.541E-06    -53.5290E-06         37.4961
            1145    -156.932E-03     982.132E-06    -294.588E-06         206.252
            1146    -158.472E-03     1.74111E-03    -522.305E-06         365.633
            1147    -140.088E-03     1.78575E-03    -535.709E-06         375.010
            1148    -158.271E-03     2.58938E-03    -776.797E-06         543.772
            1149    -160.381E-03     3.34828E-03    -1.00449E-03         703.136
            1150    -142.030E-03     3.39292E-03    -1.01788E-03         712.513
            1151    -198.121E-03    -3.34807E-03     1.00441E-03        -703.100
            1152    -197.719E-03    -2.49983E-03     749.985E-06        -524.966
            1153    -196.212E-03    -1.74105E-03     522.385E-06        -365.617
            1154    -196.011E-03    -2.58921E-03     776.798E-06        -543.730
            1155    -175.819E-03    -1.78572E-03     535.771E-06        -374.997
            1156    -177.761E-03    -3.39278E-03     1.01782E-03        -712.485
            1157    -177.560E-03    -1.69637E-03     508.953E-06        -356.238
            1158    -179.435E-03    -3.30344E-03     991.040E-06        -693.725
            1159    -196.446E-03    -892.886E-06     267.958E-06        -187.502
            1160    -195.509E-03    -134.084E-06     40.3595E-06        -28.1484
            1161    -194.672E-03    -982.300E-06     294.816E-06        -206.274
            1162    -175.082E-03    -178.708E-06     53.7100E-06        -37.5213
            1163    -176.890E-03    -89.3427E-06     26.8812E-06        -18.7582
            1164    -196.379E-03     714.180E-06    -214.161E-06         149.982
            1165    -196.011E-03     1.47306E-03    -441.849E-06         309.346
            1166    -194.538E-03     624.760E-06    -187.311E-06         131.209
            1167    -175.551E-03     1.42845E-03    -428.492E-06         299.977
            1168    -177.426E-03     1.51780E-03    -455.297E-06         318.739
            1169    -197.517E-03     2.32139E-03    -696.373E-06         487.490
            1170    -197.718E-03     3.08021E-03    -924.061E-06         646.839
            1171    -195.609E-03     2.23199E-03    -669.567E-06         468.722
            1172    -177.225E-03     3.03559E-03    -910.692E-06         637.474
            1173    -179.167E-03     3.12496E-03    -937.470E-06         656.237
            1174    -199.192E-03    -3.25869E-03     977.630E-06        -684.330
            1175    -198.221E-03    -2.41054E-03     723.205E-06        -506.217
            1176    -197.350E-03    -1.65168E-03     495.567E-06        -346.852
            1177    -178.096E-03    -1.60709E-03     482.171E-06        -337.489
            1178    -179.904E-03    -3.21415E-03     964.271E-06        -674.977
            1179    -197.015E-03    -803.561E-06     241.164E-06        -168.745
            1180    -196.714E-03    -44.6803E-06     13.5232E-06        -9.37667
            1181    -177.493E-03    -12.1745E-09     82.9484E-09    -603.676E-06
            1182    -197.015E-03     803.569E-06    -240.977E-06         168.751
            1183    -197.283E-03     1.56251E-03    -468.683E-06         328.127
            1184    -178.095E-03     1.60719E-03    -482.107E-06         337.508
            1185    -198.220E-03     2.41085E-03    -723.202E-06         506.274
            1186    -199.058E-03     3.16973E-03    -950.886E-06         665.633
            1187    -179.903E-03     3.21440E-03    -964.289E-06         675.016
            1188    -199.058E-03    -3.16949E-03     950.889E-06        -665.597
            1189    -197.518E-03    -2.32144E-03     696.471E-06        -487.505
            1190    -197.283E-03    -1.56247E-03     468.809E-06        -328.117
            1191    -177.426E-03    -1.51791E-03     455.419E-06        -318.760
            1192    -179.167E-03    -3.12500E-03     937.520E-06        -656.254
            1193    -196.379E-03    -714.411E-06     214.420E-06        -150.022
            1194    -196.714E-03     44.5929E-06    -13.2565E-06         9.37105
            1195    -176.890E-03     89.2135E-06    -26.6815E-06         18.7388
            1196    -196.446E-03     892.811E-06    -267.750E-06         187.494
            1197    -197.350E-03     1.65187E-03    -495.494E-06         346.893
            1198    -177.560E-03     1.69648E-03    -508.901E-06         356.262
            1199    -197.718E-03     2.50019E-03    -750.014E-06         525.037
            1200    -199.191E-03     3.25916E-03    -977.723E-06         684.415
            1201    -179.435E-03     3.30372E-03    -991.108E-06         693.778
            1202    -197.719E-03    -3.08048E-03     924.149E-06        -646.903
            1203    -195.609E-03    -2.23236E-03     669.733E-06        -468.792
            1204    -196.011E-03    -1.47340E-03     442.091E-06        -309.409
            1205    -175.551E-03    -1.42875E-03     428.667E-06        -300.034
            1206    -177.225E-03    -3.03586E-03     910.741E-06        -637.531
            1207    -194.538E-03    -625.308E-06     187.697E-06        -131.307
            1208    -195.508E-03     133.734E-06    -39.9895E-06         28.0934
            1209    -175.082E-03     178.411E-06    -53.4284E-06         37.4736
            1210    -194.671E-03     981.995E-06    -294.485E-06         206.227
            1211    -196.211E-03     1.74112E-03    -522.269E-06         365.637
            1212    -175.818E-03     1.78575E-03    -535.671E-06         375.011
            1213    -196.010E-03     2.58947E-03    -776.800E-06         543.791
            1214    -198.120E-03     3.34844E-03    -1.00454E-03         703.167
            1215    -177.760E-03     3.39302E-03    -1.01792E-03         712.534
            1216    -239.878E-03    -3.34770E-03     1.00430E-03        -703.020
            1217    -239.476E-03    -2.49960E-03     749.918E-06        -524.913
            1218    -237.970E-03    -1.74107E-03     522.446E-06        -365.616
            1219    -237.769E-03    -2.58921E-03     776.831E-06        -543.733
            1220    -215.568E-03    -1.78583E-03     535.866E-06        -375.017
            1221    -217.510E-03    -3.39263E-03     1.01778E-03        -712.453
            1222    -217.308E-03    -1.69634E-03     508.986E-06        -356.227
            1223    -219.183E-03    -3.30316E-03     990.955E-06        -693.667
            1224    -238.204E-03    -892.984E-06     268.039E-06        -187.517
            1225    -237.266E-03    -134.357E-06     40.5564E-06        -28.1957
            1226    -236.429E-03    -982.661E-06     295.024E-06        -206.345
            1227    -214.830E-03    -179.008E-06     53.9266E-06        -37.5751
            1228    -216.638E-03    -89.4566E-06     27.0024E-06        -18.7765
            1229    -238.136E-03     714.016E-06    -214.044E-06         149.953
            1230    -237.767E-03     1.47285E-03    -441.721E-06         309.307
            1231    -236.294E-03     624.308E-06    -187.072E-06         131.119
            1232    -215.298E-03     1.42819E-03    -428.356E-06         299.928
            1233    -217.174E-03     1.51774E-03    -455.226E-06         318.728
            1234    -239.274E-03     2.32141E-03    -696.353E-06         487.496
            1235    -239.475E-03     3.08019E-03    -924.052E-06         646.832
            1236    -237.365E-03     2.23174E-03    -669.464E-06         468.672
            1237    -216.972E-03     3.03546E-03    -910.661E-06         637.446
            1238    -218.915E-03     3.12503E-03    -937.480E-06         656.249
            1239    -240.949E-03    -3.25825E-03     977.419E-06        -684.235
            1240    -239.978E-03    -2.41027E-03     723.117E-06        -506.147
            1241    -239.108E-03    -1.65162E-03     495.577E-06        -346.828
            1242    -217.844E-03    -1.60704E-03     482.199E-06        -337.475
            1243    -219.652E-03    -3.21387E-03     964.148E-06        -674.922
            1244    -238.773E-03    -803.643E-06     241.204E-06        -168.756
            1245    -238.471E-03    -44.7984E-06     13.6343E-06        -9.39061
            1246    -217.241E-03    -90.0995E-09     182.044E-09    -11.8225E-03
            1247    -238.772E-03     803.504E-06    -240.908E-06         168.742
            1248    -239.040E-03     1.56251E-03    -468.632E-06         328.133
            1249    -217.843E-03     1.60723E-03    -482.067E-06         337.519
            1250    -239.977E-03     2.41110E-03    -723.256E-06         506.326
            1251    -240.814E-03     3.17002E-03    -950.965E-06         665.692
            1252    -219.651E-03     3.21467E-03    -964.353E-06         675.067
            1253    -240.815E-03    -3.16914E-03     950.636E-06        -665.532
            1254    -239.275E-03    -2.32134E-03     696.445E-06        -487.477
            1255    -239.040E-03    -1.56246E-03     468.838E-06        -328.105
            1256    -217.174E-03    -1.51797E-03     455.491E-06        -318.770
            1257    -218.915E-03    -3.12485E-03     937.440E-06        -656.225
            1258    -238.136E-03    -714.621E-06     214.493E-06        -150.065
            1259    -238.471E-03     44.4584E-06    -13.1486E-06         9.35135
            1260    -216.638E-03     89.0639E-06    -26.5583E-06         18.7124
            1261    -238.203E-03     892.684E-06    -267.676E-06         187.469
            1262    -239.107E-03     1.65196E-03    -495.466E-06         346.917
            1263    -217.307E-03     1.69652E-03    -508.863E-06         356.271
            1264    -239.475E-03     2.50047E-03    -750.082E-06         525.095
            1265    -240.948E-03     3.25965E-03    -977.854E-06         684.517
            1266    -219.182E-03     3.30406E-03    -991.199E-06         693.846
            1267    -239.476E-03    -3.08034E-03     924.087E-06        -646.876
            1268    -237.367E-03    -2.23271E-03     669.861E-06        -468.870
            1269    -237.768E-03    -1.47365E-03     442.207E-06        -309.457
            1270    -215.299E-03    -1.42907E-03     428.811E-06        -300.099
            1271    -216.974E-03    -3.03597E-03     910.798E-06        -637.556
            1272    -236.295E-03    -625.855E-06     187.884E-06        -131.422
            1273    -237.265E-03     133.418E-06    -39.8400E-06         28.0316
            1274    -214.830E-03     178.086E-06    -53.2486E-06         37.4107
            1275    -236.428E-03     981.648E-06    -294.349E-06         206.155
            1276    -237.968E-03     1.74110E-03    -522.224E-06         365.638
            1277    -215.566E-03     1.78568E-03    -535.599E-06         375.001
            1278    -237.766E-03     2.58961E-03    -776.824E-06         543.823
            1279    -239.876E-03     3.34893E-03    -1.00469E-03         703.269
            1280    -217.508E-03     3.39329E-03    -1.01800E-03         712.591
            1281    -285.652E-03    -3.34680E-03     1.00393E-03        -702.829
            1282    -285.251E-03    -2.49922E-03     749.663E-06        -524.808
            1283    -283.744E-03    -1.74100E-03     522.412E-06        -365.589
            1284    -283.544E-03    -2.58909E-03     776.756E-06        -543.708
            1285    -259.334E-03    -1.78602E-03     536.030E-06        -375.052
            1286    -261.276E-03    -3.39226E-03     1.01764E-03        -712.383
            1287    -261.075E-03    -1.69628E-03     508.961E-06        -356.205
            1288    -262.949E-03    -3.30256E-03     990.688E-06        -693.536
            1289    -283.978E-03    -893.206E-06     267.979E-06        -187.552
            1290    -283.041E-03    -134.750E-06     40.6482E-06        -28.2774
            1291    -282.204E-03    -983.231E-06     295.201E-06        -206.475
            1292    -258.596E-03    -179.551E-06     54.2184E-06        -37.6840
            1293    -260.404E-03    -89.7138E-06     27.1255E-06        -18.8199
            1294    -283.911E-03     713.713E-06    -214.050E-06         149.892
            1295    -283.542E-03     1.47250E-03    -441.598E-06         309.239
            1296    -282.069E-03     623.557E-06    -186.824E-06         130.957
            1297    -259.064E-03     1.42768E-03    -428.122E-06         299.825
            1298    -260.939E-03     1.51762E-03    -455.153E-06         318.707
            1299    -285.049E-03     2.32149E-03    -696.413E-06         487.517
            1300    -285.249E-03     3.08036E-03    -924.097E-06         646.872
            1301    -283.139E-03     2.23122E-03    -669.301E-06         468.561
            1302    -260.737E-03     3.03529E-03    -910.611E-06         637.406
            1303    -262.680E-03     3.12529E-03    -937.555E-06         656.304
            1304    -286.723E-03    -3.25766E-03     977.186E-06        -684.044
            1305    -285.752E-03    -2.41025E-03     722.822E-06        -506.098
            1306    -284.882E-03    -1.65174E-03     495.377E-06        -346.826
            1307    -261.610E-03    -1.60716E-03     482.118E-06        -337.481
            1308    -263.417E-03    -3.21345E-03     963.987E-06        -674.799
            1309    -284.547E-03    -803.912E-06     241.113E-06        -168.771
            1310    -284.246E-03    -45.2359E-06     13.5600E-06        -9.47639
            1311    -261.007E-03    -299.618E-09     220.319E-09    -41.8988E-03
            1312    -284.547E-03     803.305E-06    -241.041E-06         168.712
            1313    -284.815E-03     1.56246E-03    -468.709E-06         328.130
            1314    -261.609E-03     1.60729E-03    -482.096E-06         337.537
            1315    -285.753E-03     2.41145E-03    -723.423E-06         506.418
            1316    -286.590E-03     3.17065E-03    -951.193E-06         665.841
            1317    -263.418E-03     3.21524E-03    -964.541E-06         675.191
            1318    -286.589E-03    -3.16846E-03     950.705E-06        -665.261
            1319    -285.049E-03    -2.32127E-03     696.213E-06        -487.456
            1320    -284.815E-03    -1.56274E-03     468.599E-06        -328.138
            1321    -260.940E-03    -1.51811E-03     455.455E-06        -318.791
            1322    -262.681E-03    -3.12440E-03     937.385E-06        -656.111
            1323    -283.911E-03    -714.862E-06     214.366E-06        -150.106
            1324    -284.246E-03     44.0047E-06    -13.3434E-06         9.25592
            1325    -260.404E-03     88.8512E-06    -26.5326E-06         18.6713
            1326    -283.978E-03     892.519E-06    -267.862E-06         187.426
            1327    -284.882E-03     1.65201E-03    -495.631E-06         346.929
            1328    -261.073E-03     1.69660E-03    -508.898E-06         356.291
            1329    -285.250E-03     2.50094E-03    -750.263E-06         525.200
            1330    -286.724E-03     3.26064E-03    -978.193E-06         684.745
            1331    -262.948E-03     3.30484E-03    -991.420E-06         694.010
            1332    -285.250E-03    -3.07982E-03     924.010E-06        -646.736
            1333    -283.141E-03    -2.23340E-03     669.927E-06        -469.026
            1334    -283.543E-03    -1.47388E-03     442.118E-06        -309.508
            1335    -259.065E-03    -1.42967E-03     429.013E-06        -300.231
            1336    -260.740E-03    -3.03611E-03     910.755E-06        -637.588
            1337    -282.069E-03    -626.755E-06     187.823E-06        -131.653
            1338    -283.040E-03     132.926E-06    -40.0368E-06         27.9050
            1339    -258.595E-03     177.476E-06    -53.1249E-06         37.2800
            1340    -282.202E-03     981.083E-06    -294.534E-06         206.006
            1341    -283.743E-03     1.74110E-03    -522.370E-06         365.631
            1342    -259.331E-03     1.78551E-03    -535.564E-06         374.961
            1343    -283.541E-03     2.58982E-03    -776.964E-06         543.855
            1344    -285.652E-03     3.35012E-03    -1.00498E-03         703.533
            1345    -261.273E-03     3.39395E-03    -1.01818E-03         712.729
            1346    -335.441E-03    -3.34425E-03     1.00327E-03        -702.196
            1347    -335.040E-03    -2.49908E-03     749.014E-06        -524.737
            1348    -333.535E-03    -1.74030E-03     521.690E-06        -365.442
            1349    -333.335E-03    -2.58814E-03     776.371E-06        -543.607
            1350    -307.117E-03    -1.78585E-03     535.898E-06        -375.041
            1351    -309.059E-03    -3.39057E-03     1.01735E-03        -712.043
            1352    -308.857E-03    -1.69647E-03     508.661E-06        -356.208
            1353    -310.731E-03    -3.30136E-03     990.216E-06        -693.224
            1354    -333.769E-03    -893.338E-06     266.993E-06        -187.587
            1355    -332.833E-03    -134.695E-06     39.8171E-06        -28.3014
            1356    -331.996E-03    -982.878E-06     294.603E-06        -206.457
            1357    -306.380E-03    -179.971E-06     54.2456E-06        -37.7796
            1358    -308.188E-03    -89.8364E-06     26.6974E-06        -18.8530
            1359    -333.704E-03     713.504E-06    -214.783E-06         149.824
            1360    -333.336E-03     1.47214E-03    -441.802E-06         309.156
            1361    -331.862E-03     622.984E-06    -187.171E-06         130.787
            1362    -306.847E-03     1.42690E-03    -427.927E-06         299.651
            1363    -308.724E-03     1.51740E-03    -455.250E-06         318.673
            1364    -334.844E-03     2.32147E-03    -696.710E-06         487.531
            1365    -335.043E-03     3.08089E-03    -924.202E-06         647.021
            1366    -332.932E-03     2.23034E-03    -669.159E-06         468.351
            1367    -308.520E-03     3.03507E-03    -910.478E-06         637.360
            1368    -310.465E-03     3.12582E-03    -937.781E-06         656.436
            1369    -336.511E-03    -3.25703E-03     975.648E-06        -683.801
            1370    -335.541E-03    -2.41149E-03     722.230E-06        -506.123
            1371    -334.672E-03    -1.65317E-03     494.879E-06        -347.036
            1372    -309.392E-03    -1.60819E-03     481.912E-06        -337.630
            1373    -311.199E-03    -3.21362E-03     962.864E-06        -674.754
            1374    -334.338E-03    -805.385E-06     239.526E-06        -169.097
            1375    -334.038E-03    -45.7311E-06     12.3251E-06        -9.59254
            1376    -308.791E-03    -939.811E-09    -371.505E-09    -165.201E-03
            1377    -334.341E-03     802.845E-06    -242.149E-06         168.619
            1378    -334.610E-03     1.56215E-03    -469.176E-06         328.085
            1379    -309.394E-03     1.60704E-03    -482.301E-06         337.506
            1380    -335.549E-03     2.41158E-03    -724.079E-06         506.481
            1381    -336.386E-03     3.17152E-03    -951.789E-06         666.103
            1382    -311.203E-03     3.21613E-03    -965.028E-06         675.424
            1383    -336.376E-03    -3.16839E-03     947.802E-06        -665.332
            1384    -334.838E-03    -2.32108E-03     695.386E-06        -487.300
            1385    -334.604E-03    -1.56383E-03     468.041E-06        -328.261
            1386    -308.722E-03    -1.51843E-03     455.183E-06        -318.847
            1387    -310.462E-03    -3.12358E-03     936.218E-06        -655.916
            1388    -333.702E-03    -715.214E-06     212.366E-06        -150.291
            1389    -334.039E-03     43.7480E-06    -14.8739E-06         9.16792
            1390    -308.188E-03     88.6593E-06    -27.3256E-06         18.6013
            1391    -333.774E-03     892.628E-06    -269.267E-06         187.396
            1392    -334.678E-03     1.65176E-03    -496.221E-06         346.902
            1393    -308.859E-03     1.69654E-03    -509.152E-06         356.276
            1394    -335.048E-03     2.50138E-03    -750.918E-06         525.290
            1395    -336.522E-03     3.26208E-03    -978.843E-06         685.136
            1396    -310.735E-03     3.30626E-03    -991.915E-06         694.333
            1397    -335.037E-03    -3.07687E-03     922.814E-06        -646.071
            1398    -332.929E-03    -2.23403E-03     669.906E-06        -469.310
            1399    -333.332E-03    -1.47383E-03     441.077E-06        -309.515
            1400    -306.847E-03    -1.43028E-03     428.796E-06        -300.370
            1401    -308.522E-03    -3.03523E-03     911.305E-06        -637.404
            1402    -331.859E-03    -626.560E-06     186.003E-06        -131.736
            1403    -332.834E-03     133.602E-06    -42.2074E-06         27.9205
            1404    -306.379E-03     177.528E-06    -54.1485E-06         37.2010
            1405    -331.998E-03     981.288E-06    -296.336E-06         205.896
            1406    -333.541E-03     1.74120E-03    -523.156E-06         365.624
            1407    -307.117E-03     1.78529E-03    -535.955E-06         374.888
            1408    -333.340E-03     2.58984E-03    -777.402E-06         543.819
            1409    -335.451E-03     3.35226E-03    -1.00549E-03         704.031
            1410    -309.059E-03     3.39519E-03    -1.01840E-03         712.992
            1411    -389.238E-03    -3.33894E-03     1.00101E-03        -701.154
            1412    -388.837E-03    -2.50102E-03     747.838E-06        -525.013
            1413    -387.337E-03    -1.73726E-03     519.268E-06        -364.862
            1414    -387.135E-03    -2.58056E-03     774.156E-06        -541.861
            1415    -358.915E-03    -1.78285E-03     534.831E-06        -374.435
            1416    -360.854E-03    -3.38633E-03     1.01625E-03        -711.159
            1417    -360.653E-03    -1.69621E-03     507.236E-06        -356.187
            1418    -362.524E-03    -3.30230E-03     988.972E-06        -693.301
            1419    -387.574E-03    -892.390E-06     263.016E-06        -187.577
            1420    -386.644E-03    -132.040E-06     35.8311E-06        -27.9727
            1421    -385.802E-03    -978.124E-06     291.362E-06        -205.607
            1422    -358.181E-03    -178.124E-06     52.2738E-06        -37.5423
            1423    -359.989E-03    -89.4113E-06     24.4566E-06        -18.8128
            1424    -387.518E-03     714.417E-06    -218.107E-06         149.881
            1425    -387.153E-03     1.47237E-03    -443.199E-06         309.145
            1426    -385.677E-03     625.300E-06    -189.789E-06         131.103
            1427    -358.651E-03     1.42642E-03    -428.314E-06         299.519
            1428    -360.529E-03     1.51726E-03    -456.176E-06         318.616
            1429    -388.662E-03     2.32084E-03    -697.595E-06         487.400
            1430    -388.862E-03     3.08127E-03    -924.169E-06         647.203
            1431    -386.750E-03     2.22879E-03    -669.197E-06         467.961
            1432    -360.324E-03     3.03460E-03    -910.131E-06         637.258
            1433    -362.272E-03     3.12617E-03    -938.095E-06         656.606
            1434    -390.308E-03    -3.26521E-03     979.776E-06        -684.925
            1435    -389.334E-03    -2.41988E-03     721.577E-06        -507.685
            1436    -388.469E-03    -1.65626E-03     491.304E-06        -347.812
            1437    -361.188E-03    -1.61091E-03     479.389E-06        -338.047
            1438    -362.992E-03    -3.21849E-03     965.471E-06        -675.270
            1439    -388.140E-03    -805.532E-06     235.680E-06        -168.867
            1440    -387.847E-03    -46.3392E-06     6.84340E-06        -10.0793
            1441    -360.592E-03    -651.431E-09    -3.81652E-06    -153.722E-03
            1442    -388.157E-03     802.234E-06    -246.553E-06         168.304
            1443    -388.428E-03     1.56183E-03    -471.509E-06         327.969
            1444    -361.201E-03     1.60657E-03    -483.775E-06         337.415
            1445    -389.371E-03     2.41016E-03    -725.110E-06         506.282
            1446    -390.206E-03     3.17139E-03    -952.030E-06         666.348
            1447    -363.012E-03     3.21609E-03    -965.335E-06         675.594
            1448    -390.174E-03    -3.17811E-03     957.980E-06        -665.506
            1449    -388.631E-03    -2.32360E-03     693.219E-06        -487.708
            1450    -388.401E-03    -1.56967E-03     462.079E-06        -329.717
            1451    -360.519E-03    -1.51802E-03     451.712E-06        -318.729
            1452    -362.255E-03    -3.12501E-03     938.628E-06        -655.801
            1453    -387.509E-03    -710.913E-06     207.097E-06        -149.243
            1454    -387.853E-03     42.0415E-06    -22.6282E-06         8.27148
            1455    -359.992E-03     90.8883E-06    -31.6396E-06         18.9159
            1456    -387.597E-03     893.845E-06    -274.412E-06         187.383
            1457    -388.502E-03     1.65163E-03    -498.863E-06         346.817
            1458    -360.670E-03     1.69651E-03    -510.750E-06         356.229
            1459    -388.879E-03     2.50003E-03    -751.707E-06         525.040
            1460    -390.349E-03     3.26173E-03    -979.118E-06         685.327
            1461    -362.548E-03     3.30690E-03    -991.955E-06         694.570
            1462    -388.830E-03    -3.07677E-03     923.956E-06        -645.502
            1463    -386.721E-03    -2.23249E-03     666.441E-06        -468.993
            1464    -387.131E-03    -1.46882E-03     434.962E-06        -308.749
            1465    -358.640E-03    -1.42718E-03     426.406E-06        -299.988
            1466    -360.311E-03    -3.03530E-03     909.223E-06        -637.431
            1467    -385.665E-03    -619.074E-06     177.515E-06        -130.847
            1468    -386.652E-03     138.154E-06    -50.5869E-06         28.3569
            1469    -358.182E-03     180.844E-06    -59.0737E-06         37.6426
            1470    -385.824E-03     985.933E-06    -303.146E-06         206.521
            1471    -387.373E-03     1.74192E-03    -526.234E-06         365.631
            1472    -358.929E-03     1.78565E-03    -538.027E-06         374.796
            1473    -387.175E-03     2.58852E-03    -778.510E-06         543.403
            1474    -389.285E-03     3.35310E-03    -1.00485E-03         704.399
            1475    -360.874E-03     3.39611E-03    -1.01825E-03         713.216
            1476    -447.034E-03    -3.33527E-03     1.00138E-03        -699.506
            1477    -446.629E-03    -2.50043E-03     745.720E-06        -526.203
            1478    -445.143E-03    -1.72731E-03     511.390E-06        -363.383
            1479    -444.937E-03    -2.56049E-03     768.825E-06        -537.701
            1480    -414.722E-03    -1.77181E-03     529.963E-06        -372.390
            1481    -416.651E-03    -3.37607E-03     1.01233E-03        -709.097
            1482    -416.453E-03    -1.69538E-03     502.680E-06        -355.962
            1483    -418.322E-03    -3.29275E-03     992.457E-06        -691.012
            1484    -445.382E-03    -885.714E-06     253.060E-06        -186.648
            1485    -444.473E-03    -121.875E-06     24.4062E-06        -26.4192
            1486    -443.625E-03    -958.568E-06     281.672E-06        -201.815
            1487    -414.003E-03    -169.700E-06     45.9497E-06        -35.9386
            1488    -415.806E-03    -83.8448E-06     15.5638E-06        -18.1674
            1489    -445.357E-03     721.105E-06    -227.471E-06         150.720
            1490    -445.003E-03     1.47401E-03    -447.103E-06         309.275
            1491    -443.522E-03     632.771E-06    -198.009E-06         132.270
            1492    -414.485E-03     1.42712E-03    -430.582E-06         299.485
            1493    -416.360E-03     1.51787E-03    -458.966E-06         318.671
            1494    -446.513E-03     2.31774E-03    -698.900E-06         486.716
            1495    -446.714E-03     3.07884E-03    -923.079E-06         646.943
            1496    -444.605E-03     2.22566E-03    -669.447E-06         467.135
            1497    -416.158E-03     3.03233E-03    -908.712E-06         636.851
            1498    -418.106E-03     3.12428E-03    -938.000E-06         656.399
            1499    -448.087E-03    -3.26017E-03     969.675E-06        -684.629
            1500    -447.116E-03    -2.46833E-03     724.202E-06        -518.256
            1501    -446.249E-03    -1.66150E-03     488.742E-06        -349.003
            1502    -416.975E-03    -1.62684E-03     479.405E-06        -341.478
            1503    -418.781E-03    -3.23500E-03     956.584E-06        -678.579
            1504    -445.934E-03    -802.082E-06     209.904E-06        -170.042
            1505    -445.669E-03    -35.2615E-06    -10.8394E-06        -8.59881
            1506    -416.409E-03     2.98199E-06    -16.1063E-06     121.709E-03
            1507    -446.001E-03     808.957E-06    -258.709E-06         169.287
            1508    -446.277E-03     1.56146E-03    -476.099E-06         327.621
            1509    -417.037E-03     1.60569E-03    -487.522E-06         337.113
            1510    -447.230E-03     2.40335E-03    -725.941E-06         504.876
            1511    -448.059E-03     3.16557E-03    -950.786E-06         665.622
            1512    -418.852E-03     3.21179E-03    -964.996E-06         675.036
            1513    -447.942E-03    -3.16606E-03     921.200E-06        -664.596
            1514    -446.421E-03    -2.35902E-03     690.265E-06        -495.029
            1515    -446.185E-03    -1.59411E-03     464.903E-06        -334.416
            1516    -416.312E-03    -1.52718E-03     448.914E-06        -320.901
            1517    -418.041E-03    -3.13662E-03     925.099E-06        -658.290
            1518    -445.321E-03    -698.421E-06     177.715E-06        -148.458
            1519    -445.677E-03     62.0366E-06    -41.8792E-06         11.9906
            1520    -415.821E-03     98.6842E-06    -45.4459E-06         19.9811
            1521    -445.464E-03     902.765E-06    -286.947E-06         188.847
            1522    -446.370E-03     1.64817E-03    -505.166E-06         345.675
            1523    -416.520E-03     1.69556E-03    -514.451E-06         355.849
            1524    -446.759E-03     2.49099E-03    -751.418E-06         523.115
            1525    -448.215E-03     3.25242E-03    -974.996E-06         683.971
            1526    -418.401E-03     3.30188E-03    -990.748E-06         693.700
            1527    -446.602E-03    -3.06219E-03     907.783E-06        -643.689
            1528    -444.503E-03    -2.19726E-03     657.550E-06        -463.079
            1529    -444.929E-03    -1.45504E-03     421.359E-06        -305.881
            1530    -414.436E-03    -1.40934E-03     414.669E-06        -296.191
            1531    -416.101E-03    -3.00508E-03     915.958E-06        -630.749
            1532    -443.493E-03    -585.134E-06     156.541E-06        -123.755
            1533    -444.510E-03     161.021E-06    -73.6697E-06         32.2661
            1534    -414.015E-03     198.410E-06    -76.2318E-06         40.2939
            1535    -443.707E-03     1.00231E-03    -319.004E-06         209.058
            1536    -445.263E-03     1.74048E-03    -530.345E-06         365.068
            1537    -414.790E-03     1.78678E-03    -542.939E-06         374.803
            1538    -445.076E-03     2.57937E-03    -778.519E-06         541.313
            1539    -447.174E-03     3.34238E-03    -1.00007E-03         702.469
            1540    -416.737E-03     3.39077E-03    -1.01575E-03         712.110
            1541    -508.829E-03    -3.31383E-03     998.227E-06        -695.777
            1542    -508.405E-03    -2.49501E-03     746.312E-06        -527.877
            1543    -506.941E-03    -1.70162E-03     505.602E-06        -358.522
            1544    -506.739E-03    -2.53398E-03     761.176E-06        -530.817
            1545    -474.533E-03    -1.74927E-03     521.240E-06        -366.742
            1546    -476.449E-03    -3.35173E-03     1.01008E-03        -703.390
            1547    -476.243E-03    -1.68105E-03     492.244E-06        -355.934
            1548    -478.094E-03    -3.30568E-03     984.787E-06        -695.463
            1549    -507.189E-03    -843.580E-06     223.659E-06        -180.919
            1550    -506.320E-03    -102.301E-06    -560.437E-09        -24.1889
            1551    -505.453E-03    -940.838E-06     263.279E-06        -198.319
            1552    -473.853E-03    -149.640E-06     27.3584E-06        -32.9898
            1553    -475.638E-03    -64.9726E-06    -3.89526E-06        -14.9449
            1554    -507.225E-03     733.716E-06    -243.390E-06         152.563
            1555    -506.892E-03     1.47733E-03    -456.230E-06         309.325
            1556    -505.408E-03     651.508E-06    -215.252E-06         135.259
            1557    -474.363E-03     1.43113E-03    -436.262E-06         300.171
            1558    -476.226E-03     1.51914E-03    -465.315E-06         318.393
            1559    -508.401E-03     2.30882E-03    -700.234E-06         484.498
            1560    -508.608E-03     3.06946E-03    -918.893E-06         645.486
            1561    -506.514E-03     2.21736E-03    -669.820E-06         465.098
            1562    -476.037E-03     3.02422E-03    -905.021E-06         635.230
            1563    -477.974E-03     3.11446E-03    -934.954E-06         654.767
            1564    -509.829E-03    -3.28141E-03     1.05096E-03        -689.354
            1565    -508.731E-03    -2.38142E-03     685.558E-06        -498.614
            1566    -508.044E-03    -1.64130E-03     413.287E-06        -353.898
            1567    -476.734E-03    -1.56808E-03     416.556E-06        -329.901
            1568    -478.563E-03    -3.34818E-03     1.05920E-03        -698.266
            1569    -507.765E-03    -784.483E-06     192.514E-06        -167.042
            1570    -507.507E-03    -2.25081E-06    -30.6517E-06        -2.91311
            1571    -476.246E-03     18.4018E-06    -40.4564E-06         1.48625
            1572    -507.884E-03     833.154E-06    -284.279E-06         172.391
            1573    -508.166E-03     1.56192E-03    -482.891E-06         327.171
            1574    -476.915E-03     1.60599E-03    -492.066E-06         337.117
            1575    -509.133E-03     2.38316E-03    -721.938E-06         500.623
            1576    -509.945E-03     3.14394E-03    -943.458E-06         661.764
            1577    -478.729E-03     3.19235E-03    -960.153E-06         671.318
            1578    -509.615E-03    -3.95986E-03     1.12803E-03        -850.550
            1579    -508.068E-03    -2.26726E-03     643.997E-06        -472.533
            1580    -507.894E-03    -1.51275E-03     300.428E-06        -330.200
            1581    -476.098E-03    -1.45694E-03     377.198E-06        -306.179
            1582    -477.835E-03    -3.24662E-03     1.02550E-03        -674.782
            1583    -507.205E-03    -680.673E-06     160.437E-06        -144.137
            1584    -507.563E-03     90.9891E-06    -81.8656E-06         15.5947
            1585    -475.693E-03     115.329E-06    -69.9381E-06         21.9286
            1586    -507.394E-03     921.081E-06    -310.122E-06         191.061
            1587    -508.290E-03     1.64288E-03    -504.626E-06         344.542
            1588    -476.431E-03     1.69161E-03    -516.951E-06         355.027
            1589    -508.701E-03     2.46074E-03    -743.777E-06         516.799
            1590    -510.125E-03     3.21608E-03    -964.102E-06         676.760
            1591    -478.305E-03     3.27481E-03    -982.707E-06         688.152
            1592    -508.387E-03    -3.06012E-03     958.415E-06        -641.021
            1593    -506.335E-03    -2.11046E-03     623.908E-06        -445.301
            1594    -506.806E-03    -1.39486E-03     338.190E-06        -299.664
            1595    -474.252E-03    -1.34369E-03     386.277E-06        -285.656
            1596    -475.826E-03    -2.97970E-03     863.709E-06        -625.673
            1597    -505.404E-03    -483.987E-06     107.161E-06        -105.967
            1598    -506.446E-03     198.614E-06    -90.7473E-06         39.7353
            1599    -473.915E-03     239.948E-06    -105.330E-06         48.5568
            1600    -505.695E-03     1.01670E-03    -331.877E-06         211.891
            1601    -507.235E-03     1.72839E-03    -530.569E-06         362.316
            1602    -474.736E-03     1.78214E-03    -549.385E-06         373.047
            1603    -507.070E-03     2.54688E-03    -771.437E-06         534.229
            1604    -509.127E-03     3.29750E-03    -984.371E-06         693.393
            1605    -476.675E-03     3.36288E-03    -1.00603E-03         706.472
            1606    -574.600E-03    -3.37398E-03     1.02769E-03        -708.832
            1607    -574.194E-03    -2.44515E-03     734.687E-06        -516.388
            1608    -572.681E-03    -1.72104E-03     491.650E-06        -363.869
            1609    -572.482E-03    -2.64198E-03     778.121E-06        -554.154
            1610    -538.337E-03    -1.77390E-03     498.135E-06        -376.209
            1611    -540.245E-03    -3.44279E-03     1.02973E-03        -724.691
            1612    -540.033E-03    -1.61835E-03     491.965E-06        -339.463
            1613    -541.896E-03    -3.16867E-03     981.364E-06        -669.473
            1614    -572.991E-03    -819.397E-06     211.810E-06        -176.493
            1615    -572.127E-03    -71.0420E-06    -39.6530E-06        -19.8829
            1616    -571.248E-03    -932.483E-06     231.083E-06        -198.628
            1617    -537.710E-03    -127.419E-06    -2.26693E-06        -29.2634
            1618    -539.485E-03    -31.4855E-06    -31.9076E-06        -10.2696
            1619    -573.092E-03     781.094E-06    -275.507E-06         160.347
            1620    -572.809E-03     1.49647E-03    -487.997E-06         311.062
            1621    -571.304E-03     689.395E-06    -266.123E-06         140.991
            1622    -538.294E-03     1.44503E-03    -454.712E-06         302.192
            1623    -540.126E-03     1.53005E-03    -479.771E-06         319.772
            1624    -574.318E-03     2.28640E-03    -699.141E-06         479.355
            1625    -574.541E-03     3.03806E-03    -908.690E-06         639.604
            1626    -572.487E-03     2.20801E-03    -675.451E-06         462.431
            1627    -539.973E-03     3.00192E-03    -894.113E-06         630.997
            1628    -541.875E-03     3.08426E-03    -925.543E-06         648.886
            1629    -575.674E-03    -3.11954E-03     952.061E-06        -658.391
            1630    -574.790E-03    -2.25936E-03     690.511E-06        -478.204
            1631    -573.896E-03    -1.55247E-03     466.116E-06        -329.299
            1632    -540.516E-03    -1.63700E-03     348.725E-06        -363.453
            1633    -542.146E-03    -3.63612E-03     992.918E-06        -786.696
            1634    -573.685E-03    -688.020E-06     194.993E-06        -148.136
            1635    -573.381E-03     42.5589E-06    -51.6554E-06         4.07474
            1636    -540.136E-03     88.6772E-06    -72.4479E-06         15.0818
            1637    -573.811E-03     853.731E-06    -282.829E-06         176.264
            1638    -574.079E-03     1.56504E-03    -495.681E-06         326.088
            1639    -540.839E-03     1.59669E-03    -496.202E-06         333.869
            1640    -575.054E-03     2.34043E-03    -711.807E-06         490.880
            1641    -575.845E-03     3.08722E-03    -926.180E-06         650.162
            1642    -542.634E-03     3.14354E-03    -943.485E-06         661.539
            1643    -575.641E-03    -2.95787E-03     901.855E-06        -624.012
            1644    -574.231E-03    -2.11975E-03     642.395E-06        -446.963
            1645    -573.977E-03    -1.40825E-03     427.453E-06        -298.085
            1646    -539.954E-03    -1.53171E-03     309.601E-06        -339.901
            1647    -541.470E-03    -3.52979E-03     941.314E-06        -763.890
            1648    -573.210E-03    -589.567E-06     168.567E-06        -126.196
            1649    -573.516E-03     129.609E-06    -61.1656E-06         23.8260
            1650    -539.652E-03     177.910E-06    -93.6527E-06         34.6366
            1651    -573.378E-03     927.621E-06    -298.932E-06         192.811
            1652    -574.241E-03     1.62600E-03    -506.958E-06         339.481
            1653    -540.407E-03     1.67071E-03    -517.515E-06         349.690
            1654    -574.666E-03     2.39707E-03    -726.350E-06         503.116
            1655    -576.039E-03     3.13165E-03    -939.128E-06         658.928
            1656    -542.249E-03     3.20810E-03    -961.325E-06         674.451
            1657    -574.426E-03    -2.84837E-03     854.261E-06        -599.102
            1658    -572.465E-03    -2.01355E-03     608.570E-06        -421.776
            1659    -572.866E-03    -1.31055E-03     393.156E-06        -275.593
            1660    -538.255E-03    -1.19619E-03     378.118E-06        -243.974
            1661    -539.806E-03    -2.67017E-03     842.164E-06        -560.623
            1662    -571.526E-03    -495.073E-06     142.279E-06        -103.411
            1663    -572.475E-03     207.933E-06    -85.1792E-06         41.7333
            1664    -537.951E-03     262.023E-06    -114.925E-06         53.0567
            1665    -571.774E-03     1.00955E-03    -329.985E-06         210.607
            1666    -573.256E-03     1.69216E-03    -527.401E-06         353.658
            1667    -538.784E-03     1.75966E-03    -545.824E-06         368.239
            1668    -573.125E-03     2.46660E-03    -750.072E-06         517.210
            1669    -575.100E-03     3.19382E-03    -954.599E-06         671.727
            1670    -540.687E-03     3.28138E-03    -981.138E-06         689.442
            1671    -644.112E-03    -3.52698E-03     1.06423E-03        -751.260
            1672    -643.769E-03    -2.53659E-03     768.319E-06        -542.300
            1673    -642.182E-03    -1.85884E-03     492.507E-06        -401.405
            1674    -642.020E-03    -2.84912E-03     772.228E-06        -612.103
            1675    -605.958E-03    -1.83269E-03     539.409E-06        -380.026
            1676    -607.998E-03    -3.38972E-03     1.06303E-03        -697.962
            1677    -607.766E-03    -1.66482E-03     457.453E-06        -358.656
            1678    -609.620E-03    -3.34585E-03     1.04699E-03        -698.036
            1679    -642.619E-03    -768.686E-06     199.937E-06        -166.184
            1680    -641.760E-03     114.138E-06    -172.978E-06         11.1620
            1681    -640.727E-03    -974.979E-06     169.847E-06        -214.369
            1682    -605.478E-03    -31.4837E-06    -112.285E-06        -15.9648
            1683    -607.252E-03     54.1484E-06    -83.1705E-06         5.41463
            1684    -642.868E-03     891.965E-06    -351.249E-06         179.942
            1685    -642.693E-03     1.55971E-03    -557.511E-06         319.972
            1686    -641.117E-03     864.627E-06    -388.739E-06         171.737
            1687    -606.259E-03     1.50482E-03    -514.580E-06         311.980
            1688    -608.018E-03     1.55805E-03    -511.274E-06         323.206
            1689    -644.203E-03     2.24574E-03    -707.581E-06         468.491
            1690    -644.461E-03     2.92605E-03    -868.028E-06         617.305
            1691    -642.512E-03     2.20559E-03    -700.928E-06         460.586
            1692    -607.974E-03     2.94122E-03    -868.940E-06         619.096
            1693    -609.773E-03     2.99457E-03    -895.513E-06         630.290
            1694    -645.410E-03    -3.00036E-03     925.538E-06        -638.630
            1695    -644.727E-03    -2.02644E-03     690.639E-06        -438.005
            1696    -643.587E-03    -1.35932E-03     507.039E-06        -281.599
            1697    -608.606E-03    -1.27848E-03     551.552E-06        -255.915
            1698    -610.427E-03    -2.38344E-03     860.170E-06        -487.028
            1699    -643.425E-03    -544.722E-06     213.592E-06        -120.489
            1700    -643.098E-03     175.802E-06    -98.8638E-06         30.2876
            1701    -608.010E-03     130.078E-06    -41.6204E-06         22.6697
            1702    -643.577E-03     951.480E-06    -318.104E-06         194.560
            1703    -643.921E-03     1.60632E-03    -539.412E-06         331.044
            1704    -608.741E-03     1.62109E-03    -521.239E-06         337.192
            1705    -644.903E-03     2.26636E-03    -698.520E-06         473.162
            1706    -645.663E-03     2.93516E-03    -865.468E-06         618.116
            1707    -610.506E-03     3.02004E-03    -900.285E-06         634.862
            1708    -645.522E-03    -1.89696E-03     679.588E-06        -383.331
            1709    -644.246E-03    -1.99511E-03     661.408E-06        -424.348
            1710    -643.906E-03    -1.27694E-03     576.340E-06        -257.295
            1711    -608.150E-03    -1.19894E-03     515.325E-06        -236.168
            1712    -609.864E-03    -2.25998E-03     823.102E-06        -453.527
            1713    -643.010E-03    -577.076E-06     212.705E-06        -122.101
            1714    -643.272E-03     224.357E-06    -58.1281E-06         44.8478
            1715    -607.590E-03     171.360E-06    -57.8850E-06         34.0447
            1716    -643.185E-03     959.113E-06    -318.605E-06         198.465
            1717    -644.071E-03     1.63640E-03    -541.127E-06         337.842
            1718    -608.345E-03     1.65913E-03    -521.133E-06         346.114
            1719    -644.502E-03     2.30089E-03    -717.385E-06         480.479
            1720    -645.822E-03     2.95000E-03    -873.079E-06         620.563
            1721    -610.139E-03     3.05639E-03    -915.728E-06         642.364
            1722    -644.356E-03    -2.64358E-03     768.586E-06        -557.089
            1723    -642.500E-03    -1.95675E-03     610.409E-06        -408.905
            1724    -642.760E-03    -1.23912E-03     486.894E-06        -252.673
            1725    -606.412E-03    -1.33125E-03     397.789E-06        -284.999
            1726    -607.913E-03    -2.90444E-03     823.614E-06        -608.821
            1727    -641.443E-03    -551.587E-06     207.634E-06        -112.742
            1728    -642.278E-03     246.403E-06    -92.5161E-06         47.6568
            1729    -605.994E-03     274.923E-06    -91.7351E-06         56.6710
            1730    -641.657E-03     1.04126E-03    -375.045E-06         212.276
            1731    -643.129E-03     1.67299E-03    -564.902E-06         345.591
            1732    -606.836E-03     1.73005E-03    -563.061E-06         360.705
            1733    -643.101E-03     2.34610E-03    -730.755E-06         491.364
            1734    -644.934E-03     2.98940E-03    -890.303E-06         629.560
            1735    -608.684E-03     3.11342E-03    -926.845E-06         654.307
            1736    -717.988E-03    -5.19097E-03     1.71015E-03    -1.11698E+03
            1737    -717.474E-03    -1.99683E-03     756.271E-06        -454.613
            1738    -715.713E-03    -1.58144E-03     253.262E-06        -351.172
            1739    -714.975E-03    -4.80626E-03     1.18508E-03    -1.01018E+03
            1740    -677.300E-03    -2.11725E-03     193.177E-06        -487.418
            1741    -679.470E-03    -6.49969E-03     1.74297E-03    -1.42311E+03
            1742    -679.216E-03    -1.36937E-03     508.487E-06        -290.443
            1743    -681.173E-03    -3.03893E-03     999.976E-06        -684.486
            1744    -716.135E-03    -202.333E-06     197.166E-06        -39.8576
            1745    -715.232E-03     147.936E-06    -62.3338E-06         30.7245
            1746    -714.224E-03    -939.320E-06     129.217E-06        -199.125
            1747    -676.952E-03    -35.4800E-06    -179.417E-06        -22.1453
            1748    -678.804E-03     272.409E-06    -120.324E-06         45.1070
            1749    -716.305E-03     1.31902E-03    -368.482E-06         280.068
            1750    -716.300E-03     1.81370E-03    -699.172E-06         365.815
            1751    -714.615E-03     1.34286E-03    -516.214E-06         293.862
            1752    -678.149E-03     1.73435E-03    -683.355E-06         353.638
            1753    -679.787E-03     1.73002E-03    -632.306E-06         355.167
            1754    -717.776E-03     2.11958E-03    -635.338E-06         441.978
            1755    -717.964E-03     2.41107E-03    -674.092E-06         508.755
            1756    -716.329E-03     2.14953E-03    -722.125E-06         444.795
            1757    -679.971E-03     2.68176E-03    -804.910E-06         563.923
            1758    -681.513E-03     2.69164E-03    -783.096E-06         563.625
            1759    -718.869E-03    -2.18614E-03     789.973E-06        -454.882
            1760    -717.975E-03    -1.92268E-03     609.009E-06        -391.076
            1761    -717.172E-03    -1.53587E-03     590.712E-06        -321.607
            1762    -680.120E-03    -1.55901E-03     552.575E-06        -331.195
            1763    -681.730E-03    -2.49919E-03     734.677E-06        -535.195
            1764    -716.709E-03    -986.349E-06     318.750E-06        -197.341
            1765    -716.421E-03     201.662E-06    -54.6735E-06         38.5225
            1766    -679.523E-03     130.162E-06    -97.3678E-06         23.9125
            1767    -716.900E-03     1.37583E-03    -418.901E-06         311.604
            1768    -717.403E-03     1.80956E-03    -652.084E-06         371.909
            1769    -680.433E-03     1.73796E-03    -595.641E-06         358.963
            1770    -718.331E-03     2.11360E-03    -626.046E-06         438.091
            1771    -719.000E-03     2.42136E-03    -662.562E-06         500.443
            1772    -682.140E-03     2.70207E-03    -782.048E-06         562.627
            1773    -718.704E-03    -2.45095E-03     720.502E-06        -514.074
            1774    -717.461E-03    -1.90922E-03     644.892E-06        -403.997
            1775    -717.119E-03    -1.49911E-03     577.078E-06        -311.083
            1776    -679.665E-03    -1.30700E-03     563.636E-06        -274.421
            1777    -681.193E-03    -2.39223E-03     640.019E-06        -514.253
            1778    -716.177E-03    -192.079E-06     224.559E-06        -33.2621
            1779    -716.425E-03     191.725E-06    -73.9499E-06         35.1002
            1780    -679.057E-03     351.691E-06    -71.1033E-06         69.3540
            1781    -716.344E-03     1.33120E-03    -384.204E-06         282.001
            1782    -717.421E-03     1.82282E-03    -663.110E-06         374.211
            1783    -680.001E-03     1.76345E-03    -635.182E-06         362.747
            1784    -717.860E-03     2.13427E-03    -647.151E-06         445.431
            1785    -719.038E-03     2.41847E-03    -667.730E-06         500.484
            1786    -681.735E-03     2.71056E-03    -788.167E-06         568.425
            1787    -717.663E-03    -2.36845E-03     689.682E-06        -505.001
            1788    -715.969E-03    -1.98080E-03     670.093E-06        -397.828
            1789    -716.093E-03    -1.52209E-03     603.364E-06        -306.463
            1790    -678.081E-03    -1.55021E-03     524.063E-06        -320.275
            1791    -679.754E-03    -2.52858E-03     833.052E-06        -527.924
            1792    -714.570E-03    -1.09766E-03     322.613E-06        -234.816
            1793    -715.358E-03     219.983E-06    -90.1638E-06         45.2975
            1794    -677.521E-03     138.005E-06    -136.528E-06         21.7786
            1795    -714.907E-03     1.44002E-03    -533.910E-06         316.493
            1796    -716.462E-03     1.83595E-03    -708.456E-06         369.864
            1797    -678.607E-03     1.82771E-03    -672.710E-06         375.942
            1798    -716.617E-03     2.16066E-03    -713.799E-06         447.136
            1799    -718.147E-03     2.42157E-03    -687.067E-06         510.991
            1800    -680.461E-03     2.73742E-03    -828.292E-06         574.963
            1801    -798.077E-03    -1.45642E-03     640.244E-06        -18.2378
            1802    -795.226E-03    -2.61190E-03     30.2950E-06        -499.719
            1803    -795.283E-03    -2.75009E-03     1.32893E-03        -538.402
            1804    -797.727E-03    -1.60376E-03     2.43408E-03        -46.2651
            1805    -753.799E-03    -1.98899E-03     863.051E-06        -388.324
            1806    -756.113E-03    -7.38062E-03     1.32430E-03    -1.77427E+03
            1807    -755.047E-03    -1.25598E-03     641.473E-06        -223.301
            1808    -756.984E-03    -2.65728E-03     699.001E-06        -545.768
            1809    -794.429E-03     608.869E-06     472.295E-06         280.152
            1810    -793.688E-03     18.8298E-06     519.055E-06         66.2304
            1811    -792.837E-03    -2.70627E-03     709.481E-06        -623.432
            1812    -751.933E-03     204.658E-06    -41.6012E-06         53.5479
            1813    -754.408E-03     438.364E-06     91.2859E-06         104.952
            1814    -793.240E-03     1.56644E-03     401.294E-06         433.760
            1815    -792.172E-03     1.80991E-03     138.212E-06         438.796
            1816    -791.795E-03     1.57051E-03     408.464E-06         422.307
            1817    -753.484E-03     1.82791E-03    -670.599E-06         358.708
            1818    -754.873E-03     1.67531E-03    -424.223E-06         358.671
            1819    -793.085E-03     1.83345E-03    -287.763E-06         400.735
            1820    -792.997E-03     1.83157E-03    -548.656E-06         374.112
            1821    -791.814E-03     1.91363E-03    -412.604E-06         409.782
            1822    -754.926E-03     2.12554E-03    -676.820E-06         445.137
            1823    -756.124E-03     2.16420E-03    -627.833E-06         437.266
            1824    -794.703E-03    -2.34329E-03     37.0987E-06        -456.694
            1825    -794.242E-03    -1.83999E-03     361.841E-06        -356.295
            1826    -794.468E-03    -1.86682E-03     145.500E-06        -410.072
            1827    -755.588E-03    -1.43052E-03     512.791E-06        -264.129
            1828    -756.669E-03    -2.29880E-03     563.011E-06        -490.276
            1829    -794.094E-03    -2.05040E-03    -206.951E-06        -558.036
            1830    -794.220E-03    -108.492E-06     329.945E-06         7.79650
            1831    -754.225E-03     301.244E-06     43.7546E-06         101.667
            1832    -793.673E-03     1.40063E-03     483.407E-06         423.050
            1833    -793.163E-03     1.78552E-03     57.4390E-06         445.813
            1834    -755.389E-03     1.70016E-03    -525.229E-06         354.629
            1835    -793.519E-03     1.87455E-03    -355.827E-06         403.327
            1836    -793.950E-03     1.89067E-03    -500.518E-06         371.230
            1837    -756.591E-03     2.18219E-03    -563.236E-06         441.903
            1838    -794.336E-03    -1.84631E-03     359.221E-06        -366.375
            1839    -793.513E-03    -1.75992E-03     148.044E-06        -393.448
            1840    -793.725E-03    -1.86836E-03     55.0421E-06        -448.233
            1841    -754.389E-03    -1.20376E-03     458.352E-06        -247.286
            1842    -756.072E-03    -2.27432E-03     743.973E-06        -455.094
            1843    -793.274E-03     677.084E-06     92.1832E-06         247.847
            1844    -793.845E-03    -29.6356E-06     191.703E-06         11.0190
            1845    -754.052E-03     503.673E-06    -45.5635E-06         111.936
            1846    -792.829E-03     1.65536E-03     231.623E-06         441.285
            1847    -792.999E-03     1.79140E-03     28.7043E-06         443.477
            1848    -754.763E-03     1.69545E-03    -468.581E-06         359.763
            1849    -792.865E-03     1.84073E-03    -311.796E-06         398.137
            1850    -793.819E-03     1.89010E-03    -496.865E-06         371.819
            1851    -756.069E-03     2.16415E-03    -630.259E-06         439.913
            1852    -793.165E-03    -1.83594E-03     433.043E-06        -386.146
            1853    -791.966E-03    -1.95275E-03     470.191E-06        -409.788
            1854    -792.411E-03    -1.84866E-03     24.0623E-06        -423.472
            1855    -753.395E-03    -1.60946E-03     640.726E-06        -302.138
            1856    -754.711E-03    -2.23507E-03     649.403E-06        -481.760
            1857    -791.597E-03    -2.23837E-03    -166.886E-06        -553.488
            1858    -792.901E-03     529.590E-09     135.228E-06         23.8270
            1859    -751.804E-03     247.155E-06    -48.3190E-06         67.7691
            1860    -791.456E-03     1.53824E-03     256.440E-06         398.689
            1861    -791.875E-03     1.86534E-03     40.0114E-06         444.045
            1862    -753.549E-03     1.84899E-03    -706.617E-06         362.317
            1863    -791.698E-03     1.92289E-03    -437.505E-06         409.217
            1864    -792.797E-03     1.81638E-03    -537.110E-06         371.716
            1865    -755.006E-03     2.11591E-03    -656.880E-06         446.102


  Minimum           -800.304E-03    -10.4379E-03    -1.16974E-03    -2.31205E+03
         At Node             501             476              45             476

  Maximum            809.496E-06     3.39681E-03     2.72721E-03         943.805
         At Node             544             375             476              25

           Total        -500.927     806.289E-06     4.22755E-03     1.37544E+03


