            Node            U.U1            U.U2            U.U3           E.E11           E.E22           E.E33           E.E12           E.E13           E.E23           S.S11           S.S22           S.S33           S.S12           S.S13           S.S23
               1     3.00000E-36             -0.    -8.57143E-06     14.2857E-06    -4.28571E-06    -4.28571E-06     861.771E-24     7.47896E-21     6.39660E-21              3.     384.593E-18     636.385E-18     69.6045E-18     604.069E-18     516.649E-18
               2     3.00000E-36    -8.57143E-06    -8.57143E-06     14.2857E-06    -4.28571E-06    -4.28571E-06     6.58242E-21     198.567E-24    -3.94801E-21         3.00000     1.05073E-15     725.631E-18     531.657E-18     16.0381E-18    -318.878E-18
               3     3.00000E-36              0.              0.     14.2857E-06    -4.28571E-06    -4.28571E-06    -40.1209E-24     652.367E-24    -485.151E-24         3.00000     1.43532E-15     251.793E-18    -3.24047E-18     52.6912E-18    -39.1853E-18
               4     3.00000E-36    -8.57143E-06             -0.     14.2857E-06    -4.28571E-06    -4.28571E-06    -11.0671E-21     2.58402E-21    -8.45680E-21              3.     281.541E-18    -81.2740E-18    -893.878E-18     208.709E-18    -683.049E-18
               5     28.5714E-06              0.    -8.57143E-06     14.2857E-06    -4.28571E-06    -4.28571E-06    -9.98965E-21     12.4640E-21    -1.69436E-21         3.00000     1.05073E-15     303.319E-18    -806.857E-18     1.00671E-15    -136.852E-18
               6     28.5714E-06    -8.57143E-06    -8.57143E-06     14.2857E-06    -4.28571E-06    -4.28571E-06    -2.35539E-21    -18.7180E-21     5.81881E-21         3.00000    -103.051E-18     636.385E-18    -190.243E-18    -1.51184E-15     469.981E-18
               7     28.5714E-06              0.              0.     14.2857E-06    -4.28571E-06    -4.28571E-06     18.0212E-21     6.27329E-21     705.461E-24         3.00000     281.541E-18     1.49482E-15     1.45556E-15     506.689E-18     56.9796E-18
               8     28.5714E-06    -8.57143E-06              0.     14.2857E-06    -4.28571E-06    -4.28571E-06     8.49530E-21    -21.3359E-21     6.87799E-21         3.00000    -384.593E-18     251.793E-18     686.159E-18    -1.72328E-15     555.530E-18
-----------------------------------------------------------------------------------------------------------------------------------------------------------------------------------------------------------------------------------------------------------------

         Element             Int           E.E11           E.E22           E.E33           E.E12           E.E13           E.E23           S.S11           S.S22           S.S33           S.S12           S.S13           S.S23
               1               1     14.2857E-06    -4.28571E-06    -4.28571E-06    -2.30287E-21     4.76456E-21     8.73503E-22              3.     666.134E-18     555.112E-18    -186.001E-18     384.830E-18     70.5521E-18
               1               2     14.2857E-06    -4.28571E-06    -4.28571E-06    -2.11758E-22    -9.74088E-21     2.96462E-21              3.     222.045E-18     555.112E-18    -17.1036E-18    -786.763E-18     239.450E-18
               1               3     14.2857E-06    -4.28571E-06    -4.28571E-06     8.25857E-21     1.69407E-21     1.05879E-21              3.     444.089E-18     888.178E-18     667.038E-18     136.828E-18     85.5177E-18
               1               4     14.2857E-06    -4.28571E-06    -4.28571E-06     4.65868E-21    -11.2232E-21     2.96462E-21              3.              0.     444.089E-18     376.278E-18    -906.488E-18     239.450E-18
               1               5     14.2857E-06    -4.28571E-06    -4.28571E-06     2.11758E-22     4.87044E-21     2.32934E-21              3.     666.134E-18     555.112E-18     17.1036E-18     393.382E-18     188.139E-18
               1               6     14.2857E-06    -4.28571E-06    -4.28571E-06     1.69407E-21    -1.27055E-21    -1.27055E-21              3.     666.134E-18     555.112E-18     136.828E-18    -102.621E-18    -102.621E-18
               1               7     14.2857E-06    -4.28571E-06    -4.28571E-06     1.16467E-21     1.98523E-21    -3.17637E-22              3.     888.178E-18     444.089E-18     94.0695E-18     160.346E-18    -25.6553E-18
               1               8     14.2857E-06    -4.28571E-06    -4.28571E-06    -2.96462E-21    -1.48231E-21    -3.38813E-21              3.     444.089E-18     222.045E-18    -239.450E-18    -119.725E-18    -273.657E-18




