
 C3D20_ne1_P 

 C O N T R O L   I N F O R M A T I O N

      NUMBER OF NODAL POINTS . . . . . . . . . . (NUMNP)  =         20 
      NUMBER OF ELEMENT GROUPS . . . . . . . . . (NUMEG)  =          1 
      NUMBER OF LOAD CASES . . . . . . . . . . . (NLCASE) =          1 
      SOLUTION MODE  . . . . . . . . . . . . . . (MODEX)  =          2 
         EQ.0, DATA CHECK 
         EQ.1, EXECUTION - 一维变带宽存储刚度矩阵
         EQ.2, EXECUTION - Matlab稀疏矩阵左除R


 N O D A L   P O I N T   D A T A 

       NODE                BOUNDARY                           NODAL POINT
      NUMBER     CONDITION  CODES                     COORDINATES
                              X    Y    Z               X               Y              Z
         1                   1    1    0             -1.000       -1.000        2.000
         2                   1    0    0             -1.000        1.000        2.000
         3                   1    1    1             -1.000       -1.000        0.000
         4                   1    0    1             -1.000        1.000        0.000
         5                   0    1    0              1.000       -1.000        2.000
         6                   0    0    0              1.000        1.000        2.000
         7                   0    1    1              1.000       -1.000        0.000
         8                   0    0    1              1.000        1.000        0.000
         9                   0    1    0              1.000       -1.000        1.000
        10                   0    0    1              1.000        0.000        0.000
        11                   0    0    0              1.000        1.000        1.000
        12                   0    0    0              1.000        0.000        2.000
        13                   1    0    0             -1.000        0.000        2.000
        14                   1    0    0             -1.000        1.000        1.000
        15                   1    0    1             -1.000        0.000        0.000
        16                   1    1    0             -1.000       -1.000        1.000
        17                   0    0    0              0.000        1.000        2.000
        18                   0    1    0              0.000       -1.000        2.000
        19                   0    0    1              0.000        1.000        0.000
        20                   0    1    1              0.000       -1.000        0.000


 EQUATION NUMBERS

         NODE         DEGREES OF FREEDOM
       NUMBER
          N                  X         Y         Z
          1                   0         0         1
          2                   0         2         3
          3                   0         0         0
          4                   0         4         0
          5                   5         0         6
          6                   7         8         9
          7                  10         0         0
          8                  11        12         0
          9                  13         0        14
         10                  15        16         0
         11                  17        18        19
         12                  20        21        22
         13                   0        23        24
         14                   0        25        26
         15                   0        27         0
         16                   0         0        28
         17                  29        30        31
         18                  32         0        33
         19                  34        35         0
         20                  36         0         0


 L O A D   C A S E   D A T A

     LOAD CASE NUMBER . . . . . . . =          1
     NUMBER OF CONCENTRATED LOADS . =          8


         NODE           DIRECTION           LOAD
       NUMBER                               MAGNITUDE
            5                      1              -1.00000e+00            6                      1              -1.00000e+00            7                      1              -1.00000e+00            8                      1              -1.00000e+00            9                      1               4.00000e+00           10                      1               4.00000e+00           11                      1               4.00000e+00           12                      1               4.00000e+00

 E L E M E N T   G R O U P   D A T A


 E L E M E N T   D E F I N I T I O N

 ELEMENT TYPE  . . . . . . . . . . . . .( NPAR(1) ) . . =          4
     EQ.1, TRUSS ELEMENTS
     EQ.2, PLANE STRESS
     EQ.3, SOLID C3D8
     EQ.4, SOLID C3D20
 NUMBER OF ELEMENTS. . . . . . . . . . .( NPAR(2) ) . . =          1

 M A T E R I A L   D E F I N I T I O N

 NUMBER OF DIFFERENT SETS OF MATERIAL
 AND CROSS-SECTIONAL  CONSTANTS  . . . .( NPAR(3) ) . . =          1
     SET          YOUNG'S       POSSION RATIO         DENSITY
   NUMBER         MODULUS
                     E                  nu              rho
     1          2.10000e+05      3.000000e-01     7.800000e-09


 E L E M E N T   I N F O R M A T I O N

      ELEMENT 	 NODE 	 NODE 	 NODE 	 NODE 	 NODE 	 NODE 	 NODE 	 NODE 	 NODE 	 NODE 	 NODE 	 NODE 	 NODE 	 NODE 	 NODE 	 NODE 	 NODE 	 NODE 	 NODE 	 NODE 	    MATERIAL
      NUMBER-N 	   I1 	   I2 	   I3 	   I4 	   I5 	   I6 	   I7 	   I8 	   I9 	   I10 	   I11 	   I12 	   I13 	   I14 	   I15 	   I16 	   I17 	   I18 	   I19 	   I20 	    SET NUMBER
            1       5       6       8       7       1       2       4       3      12      11      10       9      13      14      15      16      18      17      19      20         1


  TOTAL SYSTEM DATA

     NUMBER OF EQUATIONS . . . . . . . . . . . . . .(NEQ) =         36
     NUMBER OF MATRIX ELEMENTS . . . . . . . . . . .(NWK) =        666
     MAXIMUM HALF BANDWIDTH  . . . . . . . . . . . .(MK ) =         36
     MEAN HALF BANDWIDTH . . . . . . . . . . . . . .(MM ) =         19


 LOAD CASE   1

 D I S P L A C E M E N T S

       NODE                  X-DISPLACEMENT         Y-DISPLACEMENT         Z-DISPLACEMENT 
          1                   0.000000e+00           0.000000e+00          -8.571429e-06
          2                   0.000000e+00          -8.571429e-06          -8.571429e-06
          3                   0.000000e+00           0.000000e+00           0.000000e+00
          4                   0.000000e+00          -8.571429e-06           0.000000e+00
          5                   2.857143e-05           0.000000e+00          -8.571429e-06
          6                   2.857143e-05          -8.571429e-06          -8.571429e-06
          7                   2.857143e-05           0.000000e+00           0.000000e+00
          8                   2.857143e-05          -8.571429e-06           0.000000e+00
          9                   2.857143e-05           0.000000e+00          -4.285714e-06
         10                   2.857143e-05          -4.285714e-06           0.000000e+00
         11                   2.857143e-05          -8.571429e-06          -4.285714e-06
         12                   2.857143e-05          -4.285714e-06          -8.571429e-06
         13                   0.000000e+00          -4.285714e-06          -8.571429e-06
         14                   0.000000e+00          -8.571429e-06          -4.285714e-06
         15                   0.000000e+00          -4.285714e-06           0.000000e+00
         16                   0.000000e+00           0.000000e+00          -4.285714e-06
         17                   1.428571e-05          -8.571429e-06          -8.571429e-06
         18                   1.428571e-05           0.000000e+00          -8.571429e-06
         19                   1.428571e-05          -8.571429e-06           0.000000e+00
         20                   1.428571e-05           0.000000e+00           0.000000e+00


  S T R A I N AND S T R E S S  C A L C U L A T I O N S  F O R  E L E M E N T  G R O U P    1

  ELEMENT        GAUSS POINT                      			     STRAIN    			     STRESS
  NUMBER            NUMBER                  E11               E22               E33               E12               E23               E13               S11               S22               S33               S12               S23               S13
       1              1            1.428571e-05    -4.285714e-06    -4.285714e-06     3.006274e-21     3.531641e-21     1.944502e-22         3.000000e+00     1.554312e-15     2.886580e-15     2.428145e-16     2.852480e-16     1.570559e-17
       1              2            1.428571e-05    -4.285714e-06    -4.285714e-06    -1.293924e-20     4.432536e-21    -2.995567e-21         3.000000e+00    -7.771561e-16     1.110223e-15    -1.045092e-15     3.580125e-16    -2.419497e-16
       1              3            1.428571e-05    -4.285714e-06    -4.285714e-06    -2.580635e-20     9.208601e-21     4.230886e-22         3.000000e+00    -4.884981e-15    -6.661338e-16    -2.084359e-15     7.437717e-16     3.417254e-17
       1              4            1.428571e-05    -4.285714e-06    -4.285714e-06     3.017339e-21     6.045301e-21    -7.110671e-21         3.000000e+00     2.220446e-16     3.108624e-15     2.437082e-16     4.882743e-16    -5.743234e-16
       1              5            1.428571e-05    -4.285714e-06    -4.285714e-06    -1.905824e-21    -1.438745e-23    -2.572051e-21         3.000000e+00     0.000000e+00     2.220446e-16    -1.539319e-16    -1.162063e-18    -2.077426e-16
       1              6            1.428571e-05    -4.285714e-06    -4.285714e-06    -8.404101e-21     4.113330e-21    -3.960767e-21         3.000000e+00    -1.776357e-15    -2.664535e-15    -6.787928e-16     3.322305e-16    -3.199081e-16
       1              7            1.428571e-05    -4.285714e-06    -4.285714e-06     5.867962e-21     1.294052e-20    -1.546837e-20         3.000000e+00    -1.998401e-15     3.108624e-15     4.739507e-16     1.045196e-15    -1.249368e-15
       1              8            1.428571e-05    -4.285714e-06    -4.285714e-06     1.119223e-20    -4.037794e-21    -5.113150e-21         3.000000e+00     1.110223e-16    -4.440892e-16     9.039882e-16    -3.261295e-16    -4.129852e-16
       1              9            1.428571e-05    -4.285714e-06    -4.285714e-06     2.563683e-22    -1.128332e-21    -4.243494e-21         3.000000e+00     4.551914e-15    -1.998401e-15     2.070667e-17    -9.113452e-17    -3.427438e-16
       1             10            1.428571e-05    -4.285714e-06    -4.285714e-06     6.592660e-21     2.964745e-21    -5.315495e-23         3.000000e+00    -2.109424e-15    -6.661338e-16     5.324841e-16     2.394601e-16    -4.293284e-18
       1             11            1.428571e-05    -4.285714e-06    -4.285714e-06     1.036803e-21     6.352747e-22    -1.482308e-21         3.000000e+00    -7.771561e-16     1.110223e-15     8.374182e-17     5.131065e-17    -1.197248e-16
       1             12            1.428571e-05    -4.285714e-06    -4.285714e-06    -6.341281e-22     2.522264e-21    -4.574351e-21         3.000000e+00    -3.219647e-15    -2.220446e-16    -5.121804e-17     2.037213e-16    -3.694668e-16
       1             13            1.428571e-05    -4.285714e-06    -4.285714e-06     1.852669e-21     1.323618e-21     5.821198e-22         3.000000e+00    -1.776357e-15     2.220446e-16     1.496387e-16     1.069076e-16     4.701737e-17
       1             14            1.428571e-05    -4.285714e-06    -4.285714e-06    -1.694066e-21    -2.541099e-21     2.117582e-22         3.000000e+00    -7.771561e-16     4.440892e-16    -1.368284e-16    -2.052426e-16     1.710355e-17
       1             15            1.428571e-05    -4.285714e-06    -4.285714e-06    -4.711836e-21     1.217739e-21    -1.958979e-21         3.000000e+00    -5.551115e-16     0.000000e+00    -3.805714e-16     9.835585e-17    -1.582252e-16
       1             16            1.428571e-05    -4.285714e-06    -4.285714e-06     4.349047e-22     1.060084e-22    -2.649132e-22         3.000000e+00    -3.219647e-15     2.220446e-16     3.512692e-17     8.562213e-18    -2.139683e-17
       1             17            1.428571e-05    -4.285714e-06    -4.285714e-06    -1.936776e-21    -6.140989e-21     4.870439e-21         3.000000e+00    -9.992007e-16     0.000000e+00    -1.564319e-16    -4.960029e-16     3.933816e-16
       1             18            1.428571e-05    -4.285714e-06    -4.285714e-06    -9.254723e-21     1.190817e-22     5.466063e-21         3.000000e+00     2.775558e-15     4.440892e-16    -7.474968e-16     9.618137e-18     4.414897e-16
       1             19            1.428571e-05    -4.285714e-06    -4.285714e-06     4.114774e-21    -1.295190e-21     1.641196e-21         3.000000e+00    -3.885781e-15     0.000000e+00     3.323472e-16    -1.046115e-16     1.325581e-16
       1             20            1.428571e-05    -4.285714e-06    -4.285714e-06     9.930649e-21    -7.797059e-22     1.460320e-21         3.000000e+00    -1.332268e-15     1.110223e-15     8.020909e-16    -6.297625e-17     1.179489e-16
       1             21            1.428571e-05    -4.285714e-06    -4.285714e-06     1.993343e-20     6.967417e-22     1.302212e-20         3.000000e+00    -3.219647e-15    -2.886580e-15     1.610008e-15     5.627529e-17     1.051787e-15
       1             22            1.428571e-05    -4.285714e-06    -4.285714e-06     7.938780e-22    -6.577868e-21     3.826299e-21         3.000000e+00    -1.887379e-15     1.332268e-15     6.412092e-17    -5.312894e-16     3.090472e-16
       1             23            1.428571e-05    -4.285714e-06    -4.285714e-06     2.329341e-21    -1.679678e-21     2.730869e-21         3.000000e+00    -1.554312e-15     8.881784e-16     1.881390e-16    -1.356663e-16     2.205702e-16
       1             24            1.428571e-05    -4.285714e-06    -4.285714e-06    -1.292098e-21     6.870414e-21     6.142136e-21         3.000000e+00    -1.887379e-15    -1.998401e-15    -1.043618e-16     5.549180e-16     4.960956e-16
       1             25            1.428571e-05    -4.285714e-06    -4.285714e-06    -9.887883e-22    -1.173457e-20     2.979266e-21         3.000000e+00    -1.443290e-15     2.664535e-15    -7.986367e-17    -9.477924e-16     2.406330e-16
       1             26            1.428571e-05    -4.285714e-06    -4.285714e-06    -9.089292e-21    -5.709622e-21     9.827869e-22         3.000000e+00    -3.330669e-16     2.442491e-15    -7.341351e-16    -4.611617e-16     7.937895e-17
       1             27            1.428571e-05    -4.285714e-06    -4.285714e-06    -1.799083e-20     1.146782e-20     4.263320e-21         3.000000e+00    -1.554312e-15    -1.110223e-15    -1.453105e-15     9.262473e-16     3.443450e-16


 S O L U T I O N   T I M E   L O G   I N   S E C

     TIME FOR INPUT PHASE  . . . . . . . . . . . . . . =         0.03
     TIME FOR CALCULATION OF STIFFNESS MATRIX  . . . . =         0.02
     TIME FOR FACTORIZATION OF STIFFNESS MATRIX  . . . =         0.00
     TIME FOR LOAD CASE SOLUTIONS  . . . . . . . . . . =         0.02

      T O T A L   S O L U T I O N   T I M E  . . . . . =         0.07
