            Node            U.U2           E.E11           E.E22           S.S11
           Label          @Loc 1          @Loc 1          @Loc 1          @Loc 1
---------------------------------------------------------------------------------
               1    -393.298E-36    -2.48924E-03    -472.937E-12        -703.689
               2    -337.939E-36              0.    -11.3687E-12              0.
               3    -393.298E-36     2.48924E-03     502.041E-12         703.689
               4    -806.160E-36    -2.16321E-03    -475.893E-12        -611.524
               5    -835.707E-36              0.     7.04858E-12     3.81470E-06
               6    -806.160E-36     2.16321E-03     476.575E-12         611.524
               7    -393.298E-36    -2.48924E-03    -440.195E-12        -703.689
               8    -337.939E-36    -29.1038E-12    -3.63798E-12              0.
               9    -393.298E-36     2.48924E-03     523.869E-12         703.689
              10    -6.49907E-03    -2.86963E-03     931.204E-06        -591.719
              11    -4.51858E-03              0.    -10.9139E-12              0.
              12    -6.49907E-03     2.86963E-03    -931.204E-06         591.719
              13    -8.46243E-03    -3.01143E-03     1.02108E-03        -641.678
              14    -6.26438E-03              0.     3.63798E-12    -1.43051E-06
              15    -8.46243E-03     3.01143E-03    -1.02108E-03         641.678
              16    -6.49907E-03    -2.86963E-03     931.204E-06        -591.719
              17    -4.51858E-03     21.8279E-12    -3.63798E-12     4.76837E-06
              18    -6.49907E-03     2.86963E-03    -931.204E-06         591.719
              19    -26.7792E-03    -2.82687E-03     820.923E-06        -598.353
              20    -24.6713E-03    -7.27596E-12    -2.27374E-12              0.
              21    -26.7792E-03     2.82687E-03    -820.923E-06         598.353
              22    -28.9129E-03    -2.85225E-03     821.544E-06        -600.661
              23    -26.7720E-03    -14.5519E-12    -5.00222E-12    -953.674E-09
              24    -28.9129E-03     2.85225E-03    -821.545E-06         600.661
              25    -26.7792E-03    -2.82687E-03     820.923E-06        -598.353
              26    -24.6713E-03              0.              0.    -2.38419E-06
              27    -26.7792E-03     2.82687E-03    -820.923E-06         598.353
              28    -61.5386E-03    -2.86152E-03     865.199E-06        -599.932
              29    -59.3899E-03     7.27596E-12              0.    -536.442E-09
              30    -61.5386E-03     2.86152E-03    -865.199E-06         599.932
              31    -63.6823E-03    -2.85681E-03     867.076E-06        -599.062
              32    -61.5325E-03     7.27596E-12     4.03588E-12     685.453E-09
              33    -63.6823E-03     2.85681E-03    -867.076E-06         599.062
              34    -61.5386E-03    -2.86152E-03     865.199E-06        -599.932
              35    -59.3899E-03              0.              0.              0.
              36    -61.5386E-03     2.86152E-03    -865.199E-06         599.932
              37    -110.539E-03    -2.85656E-03     855.127E-06        -600.135
              38    -108.398E-03              0.              0.              0.
              39    -110.539E-03     2.85656E-03    -855.127E-06         600.135
              40    -112.682E-03    -2.85723E-03     854.852E-06        -600.217
              41    -110.541E-03    -21.8279E-12    -3.18323E-12     953.674E-09
              42    -112.682E-03     2.85723E-03    -854.852E-06         600.217
              43    -110.539E-03    -2.85656E-03     855.127E-06        -600.135
              44    -108.398E-03     29.1038E-12    -8.18545E-12    -3.81470E-06
              45    -110.539E-03     2.85656E-03    -855.127E-06         600.135
              46    -173.838E-03    -2.85722E-03     857.478E-06        -599.976
              47    -171.695E-03              0.              0.              0.
              48    -173.838E-03     2.85722E-03    -857.478E-06         599.976
              49    -175.981E-03    -2.85709E-03     857.495E-06        -599.959
              50    -173.838E-03     3.63798E-12    -3.63798E-12     953.674E-09
              51    -175.981E-03     2.85709E-03    -857.495E-06         599.959
              52    -173.838E-03    -2.85722E-03     857.478E-06        -599.976
              53    -171.695E-03              0.     15.4614E-12     4.29153E-06
              54    -173.838E-03     2.85722E-03    -857.478E-06         599.976
              55    -251.421E-03    -2.85726E-03     857.583E-06        -599.948
              56    -249.278E-03    -7.27596E-12              0.    -476.837E-09
              57    -251.421E-03     2.85725E-03    -857.583E-06         599.948
              58    -253.564E-03    -2.85707E-03     857.814E-06        -599.901
              59    -251.421E-03     14.5519E-12     3.63798E-12    -238.419E-09
              60    -253.564E-03     2.85707E-03    -857.814E-06         599.901
              61    -251.421E-03    -2.85726E-03     857.583E-06        -599.948
              62    -249.278E-03    -50.9317E-12              0.    -3.81470E-06
              63    -251.421E-03     2.85726E-03    -857.583E-06         599.948
              64    -343.288E-03    -2.85595E-03     855.224E-06        -600.157
              65    -341.143E-03              0.     113.687E-15    -476.837E-09
              66    -343.288E-03     2.85595E-03    -855.224E-06         600.157
              67    -345.428E-03    -2.85698E-03     853.950E-06        -600.307
              68    -343.286E-03              0.    -454.747E-15    -1.90735E-06
              69    -345.428E-03     2.85698E-03    -853.950E-06         600.307
              70    -343.288E-03    -2.85595E-03     855.224E-06        -600.157
              71    -341.143E-03    -7.27596E-12    -14.5519E-12     5.72205E-06
              72    -343.288E-03     2.85595E-03    -855.224E-06         600.157
              73    -449.432E-03    -2.86654E-03     860.152E-06        -600.845
              74    -447.318E-03              0.    -227.374E-15     119.209E-09
              75    -449.432E-03     2.86654E-03    -860.152E-06         600.845
              76    -451.586E-03    -2.86789E-03     868.312E-06        -601.936
              77    -449.450E-03    -14.5519E-12     1.25056E-12     1.90735E-06
              78    -451.586E-03     2.86789E-03    -868.312E-06         601.936
              79    -449.432E-03    -2.86654E-03     860.152E-06        -600.845
              80    -447.318E-03              0.     6.36646E-12              0.
              81    -449.432E-03     2.86654E-03    -860.152E-06         600.845
              82    -570.165E-03    -2.71886E-03     909.674E-06        -561.388
              83    -567.682E-03    -14.5519E-12    -1.81899E-12    -4.52995E-06
              84    -570.165E-03     2.71886E-03    -909.674E-06         561.389
              85    -572.132E-03    -2.68190E-03     865.381E-06        -552.748
              86    -569.806E-03    -20.0089E-12    -909.495E-15     4.41074E-06
              87    -572.132E-03     2.68190E-03    -865.381E-06         552.747
              88    -570.165E-03    -2.71886E-03     909.674E-06        -561.389
              89    -567.682E-03     36.3798E-12              0.    -1.43051E-06
              90    -570.165E-03     2.71886E-03    -909.674E-06         561.389
              91    -702.843E-03    -2.30153E-03     396.219E-06        -496.163
              92    -702.307E-03     50.9317E-12    -21.8279E-12     17.1661E-06
              93    -702.843E-03     2.30153E-03    -396.219E-06         496.163
              94    -704.635E-03    -2.22442E-03     304.028E-06        -487.277
              95    -704.487E-03    -3.63798E-12              0.    -3.81470E-06
              96    -704.635E-03     2.22442E-03    -304.028E-06         487.277
              97    -702.843E-03    -2.30153E-03     396.219E-06        -496.163
              98    -702.307E-03              0.     7.27596E-12    -14.3051E-06
              99    -702.843E-03     2.30153E-03    -396.219E-06         496.163
             100    -8.03641E-03    -2.94212E-03     971.904E-06        -617.661
             101    -6.63656E-03    -1.50436E-03     439.612E-06        -328.240
             102    -5.96835E-03              0.     7.27596E-12     953.674E-09
             103    -4.83994E-03    -1.43320E-03     396.098E-06        -303.013
             104     725.755E-36    -1.26096E-03     83.6735E-12        -356.464
             105     713.351E-36              0.     5.45697E-12              0.
             106     1.11202E-33    -1.06223E-03     87.3115E-12        -300.284
             107    -464.166E-36    -2.28607E-03     92.7685E-12        -646.254
             108     213.896E-06              0.    -7.27596E-12     1.90735E-06
             109    -2.02910E-03    -2.69617E-03     716.154E-06        -592.787
             110    -1.09979E-03              0.     7.27596E-12     953.674E-09
             111    -3.30899E-03    -2.67598E-03     732.578E-06        -595.471
             112    -6.63656E-03     1.50436E-03    -439.612E-06         328.240
             113    -8.03641E-03     2.94212E-03    -971.904E-06         617.661
             114    -4.83994E-03     1.43320E-03    -396.098E-06         303.013
             115     725.755E-36     1.26096E-03    -83.6735E-12         356.464
             116    -464.166E-36     2.28607E-03    -87.3115E-12         646.254
             117     1.11202E-33     1.06223E-03    -87.3115E-12         300.284
             118    -2.02910E-03     2.69617E-03    -716.154E-06         592.786
             119    -3.30899E-03     2.67598E-03    -732.578E-06         595.471
             120    -8.03641E-03    -2.94212E-03     971.904E-06        -617.661
             121    -4.83994E-03    -1.43320E-03     396.098E-06        -303.013
             122    -5.96835E-03              0.     7.27596E-12     953.674E-09
             123     713.351E-36              0.     5.45697E-12              0.
             124     725.755E-36    -1.26096E-03     87.3115E-12        -356.464
             125    -464.166E-36    -2.28607E-03     92.7685E-12        -646.254
             126     213.896E-06              0.     7.27596E-12              0.
             127    -2.02910E-03    -2.69617E-03     716.154E-06        -592.787
             128    -4.83994E-03     1.43320E-03    -396.098E-06         303.013
             129    -8.03641E-03     2.94212E-03    -971.904E-06         617.661
             130    -464.166E-36     2.28607E-03    -87.3115E-12         646.254
             131     725.755E-36     1.26096E-03    -87.3115E-12         356.464
             132    -2.02910E-03     2.69617E-03    -716.154E-06         592.786
             133    -28.3759E-03    -2.85951E-03     824.205E-06        -604.787
             134    -27.3507E-03    -1.43626E-03     428.171E-06        -301.127
             135    -26.2367E-03              0.     4.54747E-12     3.81470E-06
             136    -25.2260E-03    -1.40574E-03     421.583E-06        -295.695
             137    -12.7404E-03              0.     7.27596E-12              0.
             138    -14.8445E-03    -2.83087E-03     888.053E-06        -586.267
             139    -14.7422E-03              0.     1.81899E-12              0.
             140    -16.9575E-03    -2.83564E-03     930.494E-06        -590.458
             141    -27.3507E-03     1.43626E-03    -428.171E-06         301.127
             142    -28.3759E-03     2.85951E-03    -824.205E-06         604.787
             143    -25.2260E-03     1.40574E-03    -421.583E-06         295.695
             144    -14.8445E-03     2.83087E-03    -888.053E-06         586.267
             145    -16.9575E-03     2.83564E-03    -930.494E-06         590.458
             146    -28.3759E-03    -2.85951E-03     824.205E-06        -604.787
             147    -25.2260E-03    -1.40574E-03     421.583E-06        -295.695
             148    -26.2367E-03              0.     4.54747E-12     3.81470E-06
             149    -12.7404E-03              0.              0.    -7.62939E-06
             150    -14.8445E-03    -2.83087E-03     888.053E-06        -586.267
             151    -25.2260E-03     1.40574E-03    -421.583E-06         295.695
             152    -28.3759E-03     2.85951E-03    -824.205E-06         604.787
             153    -14.8445E-03     2.83087E-03    -888.053E-06         586.267
             154    -63.1466E-03    -2.85759E-03     864.993E-06        -599.190
             155    -62.0610E-03    -1.42965E-03     429.947E-06        -300.263
             156    -61.0031E-03              0.    -3.63798E-12              0.
             157    -59.9199E-03    -1.43228E-03     429.737E-06        -300.687
             158    -40.2371E-03              0.              0.              0.
             159    -42.3806E-03    -2.84505E-03     846.090E-06        -598.873
             160    -42.3772E-03              0.     454.747E-15              0.
             161    -44.5175E-03    -2.86110E-03     843.303E-06        -601.695
             162    -62.0610E-03     1.42965E-03    -429.947E-06         300.263
             163    -63.1466E-03     2.85759E-03    -864.993E-06         599.190
             164    -59.9199E-03     1.43228E-03    -429.737E-06         300.687
             165    -42.3806E-03     2.84505E-03    -846.089E-06         598.873
             166    -44.5175E-03     2.86110E-03    -843.303E-06         601.695
             167    -63.1466E-03    -2.85759E-03     864.993E-06        -599.190
             168    -59.9199E-03    -1.43228E-03     429.737E-06        -300.687
             169    -61.0031E-03              0.    -3.63798E-12              0.
             170    -40.2371E-03              0.              0.              0.
             171    -42.3806E-03    -2.84505E-03     846.090E-06        -598.873
             172    -59.9199E-03     1.43228E-03    -429.737E-06         300.687
             173    -63.1466E-03     2.85759E-03    -864.993E-06         599.190
             174    -42.3806E-03     2.84505E-03    -846.090E-06         598.873
             175    -112.146E-03    -2.85705E-03     855.302E-06        -600.182
             176    -111.078E-03    -1.42823E-03     428.252E-06        -299.916
             177    -110.004E-03              0.              0.              0.
             178    -108.935E-03    -1.42784E-03     428.185E-06        -299.887
             179    -82.1083E-03              0.              0.              0.
             180    -84.2514E-03    -2.85911E-03     859.814E-06        -600.121
             181    -84.2506E-03              0.              0.              0.
             182    -86.3942E-03    -2.85829E-03     860.596E-06        -600.067
             183    -111.078E-03     1.42823E-03    -428.252E-06         299.916
             184    -112.146E-03     2.85705E-03    -855.302E-06         600.182
             185    -108.935E-03     1.42784E-03    -428.185E-06         299.887
             186    -84.2514E-03     2.85911E-03    -859.814E-06         600.121
             187    -86.3942E-03     2.85829E-03    -860.596E-06         600.067
             188    -112.146E-03    -2.85705E-03     855.302E-06        -600.182
             189    -108.935E-03    -1.42784E-03     428.185E-06        -299.887
             190    -110.004E-03              0.              0.              0.
             191    -82.1083E-03    -29.1038E-12     7.27596E-12              0.
             192    -84.2514E-03    -2.85911E-03     859.814E-06        -600.121
             193    -108.935E-03     1.42784E-03    -428.185E-06         299.887
             194    -112.146E-03     2.85705E-03    -855.302E-06         600.182
             195    -84.2514E-03     2.85911E-03    -859.814E-06         600.121
             196    -175.445E-03    -2.85717E-03     857.411E-06        -599.981
             197    -174.373E-03    -1.42860E-03     428.626E-06        -300.003
             198    -173.303E-03              0.     3.63798E-12              0.
             199    -172.231E-03    -1.42867E-03     428.653E-06        -300.009
             200    -138.261E-03              0.              0.              0.
             201    -140.403E-03    -2.85656E-03     856.420E-06        -599.942
             202    -140.404E-03              0.    -3.63798E-12    -3.81470E-06
             203    -142.546E-03    -2.85679E-03     856.280E-06        -599.965
             204    -174.373E-03     1.42860E-03    -428.626E-06         300.003
             205    -175.445E-03     2.85717E-03    -857.411E-06         599.981
             206    -172.231E-03     1.42867E-03    -428.653E-06         300.009
             207    -140.403E-03     2.85656E-03    -856.420E-06         599.942
             208    -142.546E-03     2.85679E-03    -856.280E-06         599.965
             209    -175.445E-03    -2.85717E-03     857.411E-06        -599.981
             210    -172.231E-03    -1.42867E-03     428.653E-06        -300.009
             211    -173.303E-03              0.     3.63798E-12              0.
             212    -138.261E-03              0.     7.27596E-12    -7.62939E-06
             213    -140.403E-03    -2.85656E-03     856.420E-06        -599.942
             214    -172.231E-03     1.42867E-03    -428.653E-06         300.009
             215    -175.445E-03     2.85717E-03    -857.411E-06         599.981
             216    -140.403E-03     2.85656E-03    -856.420E-06         599.942
             217    -253.028E-03    -2.85713E-03     857.773E-06        -599.906
             218    -251.956E-03    -1.42873E-03     428.635E-06        -300.052
             219    -250.885E-03    -14.5519E-12              0.              0.
             220    -249.813E-03    -1.42880E-03     428.543E-06        -300.067
             221    -208.701E-03              0.              0.              0.
             222    -210.843E-03    -2.85746E-03     857.461E-06        -600.037
             223    -210.844E-03              0.              0.              0.
             224    -212.986E-03    -2.85738E-03     857.590E-06        -600.028
             225    -251.956E-03     1.42873E-03    -428.635E-06         300.052
             226    -253.028E-03     2.85713E-03    -857.773E-06         599.906
             227    -249.813E-03     1.42880E-03    -428.543E-06         300.067
             228    -210.843E-03     2.85746E-03    -857.461E-06         600.037
             229    -212.986E-03     2.85738E-03    -857.590E-06         600.028
             230    -253.028E-03    -2.85713E-03     857.773E-06        -599.906
             231    -249.813E-03    -1.42880E-03     428.543E-06        -300.067
             232    -250.885E-03    -14.5519E-12              0.              0.
             233    -208.701E-03              0.              0.              0.
             234    -210.843E-03    -2.85746E-03     857.461E-06        -600.037
             235    -249.813E-03     1.42880E-03    -428.543E-06         300.067
             236    -253.028E-03     2.85713E-03    -857.773E-06         599.906
             237    -210.843E-03     2.85746E-03    -857.461E-06         600.037
             238    -344.891E-03    -2.85673E-03     854.062E-06        -600.369
             239    -343.825E-03    -1.42865E-03     428.436E-06        -299.920
             240    -342.751E-03              0.              0.              0.
             241    -341.683E-03    -1.42768E-03     428.968E-06        -299.729
             242    -293.425E-03              0.              0.              0.
             243    -295.570E-03    -2.85616E-03     856.634E-06        -599.882
             244    -295.568E-03    -14.5519E-12              0.              0.
             245    -297.711E-03    -2.85669E-03     855.945E-06        -599.987
             246    -343.825E-03     1.42865E-03    -428.436E-06         299.920
             247    -344.891E-03     2.85673E-03    -854.063E-06         600.369
             248    -341.683E-03     1.42768E-03    -428.968E-06         299.729
             249    -295.570E-03     2.85616E-03    -856.634E-06         599.882
             250    -297.711E-03     2.85669E-03    -855.945E-06         599.987
             251    -344.891E-03    -2.85673E-03     854.062E-06        -600.369
             252    -341.683E-03    -1.42768E-03     428.968E-06        -299.729
             253    -342.751E-03              0.              0.              0.
             254    -293.425E-03              0.              0.              0.
             255    -295.570E-03    -2.85616E-03     856.634E-06        -599.882
             256    -341.683E-03     1.42768E-03    -428.968E-06         299.729
             257    -344.891E-03     2.85673E-03    -854.063E-06         600.369
             258    -295.570E-03     2.85616E-03    -856.634E-06         599.882
             259    -451.059E-03    -2.86936E-03     867.745E-06        -601.571
             260    -449.967E-03    -1.41897E-03     427.371E-06        -298.165
             261    -448.915E-03              0.    -3.18323E-12              0.
             262    -447.829E-03    -1.41827E-03     422.930E-06        -297.656
             263    -392.441E-03              0.    -909.495E-15              0.
             264    -394.573E-03    -2.85910E-03     858.083E-06        -599.889
             265    -394.580E-03              0.     454.747E-15              0.
             266    -396.725E-03    -2.85711E-03     862.420E-06        -599.503
             267    -449.967E-03     1.41897E-03    -427.371E-06         298.165
             268    -451.059E-03     2.86936E-03    -867.745E-06         601.571
             269    -447.829E-03     1.41827E-03    -422.930E-06         297.656
             270    -394.573E-03     2.85910E-03    -858.083E-06         599.889
             271    -396.725E-03     2.85711E-03    -862.420E-06         599.503
             272    -451.059E-03    -2.86936E-03     867.745E-06        -601.571
             273    -447.829E-03    -1.41827E-03     422.930E-06        -297.656
             274    -448.915E-03              0.    -3.18323E-12              0.
             275    -392.441E-03              0.              0.              0.
             276    -394.573E-03    -2.85910E-03     858.083E-06        -599.889
             277    -447.829E-03     1.41827E-03    -422.930E-06         297.656
             278    -451.059E-03     2.86936E-03    -867.745E-06         601.571
             279    -394.573E-03     2.85910E-03    -858.083E-06         599.889
             280    -571.622E-03    -2.68213E-03     874.344E-06        -553.506
             281    -570.469E-03    -1.56969E-03     465.127E-06        -334.860
             282    -569.284E-03    -14.5519E-12     7.27596E-12              0.
             283    -568.407E-03    -1.59934E-03     496.731E-06        -341.194
             284    -505.770E-03              0.              0.              0.
             285    -507.911E-03    -2.88429E-03     853.257E-06        -609.945
             286    -507.899E-03     14.5519E-12              0.    -3.81470E-06
             287    -509.997E-03    -2.87779E-03     840.377E-06        -608.735
             288    -570.469E-03     1.56969E-03    -465.127E-06         334.860
             289    -571.622E-03     2.68213E-03    -874.344E-06         553.506
             290    -568.407E-03     1.59934E-03    -496.731E-06         341.194
             291    -507.911E-03     2.88429E-03    -853.257E-06         609.945
             292    -509.997E-03     2.87779E-03    -840.377E-06         608.735
             293    -571.622E-03    -2.68213E-03     874.344E-06        -553.506
             294    -568.407E-03    -1.59934E-03     496.731E-06        -341.194
             295    -569.284E-03    -14.5519E-12     7.27596E-12              0.
             296    -505.770E-03              0.              0.              0.
             297    -507.911E-03    -2.88429E-03     853.257E-06        -609.945
             298    -568.407E-03     1.59934E-03    -496.731E-06         341.194
             299    -571.622E-03     2.68213E-03    -874.344E-06         553.506
             300    -507.911E-03     2.88429E-03    -853.257E-06         609.945
             301    -704.099E-03    -2.22277E-03     291.067E-06        -487.509
             302    -704.218E-03    -1.59935E-03     29.6972E-06        -384.588
             303    -704.053E-03    -3.63798E-12              0.              0.
             304    -702.214E-03    -1.65948E-03     107.143E-06        -391.332
             305    -632.726E-03    -3.63798E-12     14.5519E-12              0.
             306    -635.818E-03    -2.42111E-03     969.372E-06        -471.858
             307    -634.923E-03     30.9228E-12    -3.63798E-12     3.81470E-06
             308    -637.656E-03    -2.35580E-03     883.911E-06        -462.838
             309    -704.218E-03     1.59935E-03    -29.6972E-06         384.588
             310    -704.099E-03     2.22277E-03    -291.067E-06         487.509
             311    -702.214E-03     1.65948E-03    -107.143E-06         391.332
             312    -635.818E-03     2.42111E-03    -969.372E-06         471.858
             313    -637.656E-03     2.35580E-03    -883.911E-06         462.838
             314    -704.099E-03    -2.22277E-03     291.067E-06        -487.509
             315    -702.214E-03    -1.65948E-03     107.143E-06        -391.332
             316    -704.053E-03    -3.63798E-12              0.              0.
             317    -632.726E-03              0.     14.5519E-12     7.62939E-06
             318    -635.818E-03    -2.42111E-03     969.372E-06        -471.858
             319    -702.214E-03     1.65948E-03    -107.143E-06         391.332
             320    -704.099E-03     2.22277E-03    -291.067E-06         487.509
             321    -635.818E-03     2.42111E-03    -969.372E-06         471.858


  Minimum           -704.635E-03    -3.01143E-03    -1.02108E-03        -703.689
         At Node              96              13              15               7

  Maximum            213.896E-06     3.01143E-03     1.02108E-03         703.689
         At Node             126              15              13               9

           Total        -77.5813    -785.803E-12    -405.009E-12    -1.52025E-03


