
 C3D20_ne1 

 C O N T R O L   I N F O R M A T I O N

      NUMBER OF NODAL POINTS . . . . . . . . . . (NUMNP)  =         20 
      NUMBER OF ELEMENT GROUPS . . . . . . . . . (NUMEG)  =          1 
      NUMBER OF LOAD CASES . . . . . . . . . . . (NLCASE) =          1 
      SOLUTION MODE  . . . . . . . . . . . . . . (MODEX)  =          2 
         EQ.0, DATA CHECK 
         EQ.1, EXECUTION - 一维变带宽存储刚度矩阵
         EQ.2, EXECUTION - Matlab稀疏矩阵左除R


 N O D A L   P O I N T   D A T A 

       NODE                BOUNDARY                           NODAL POINT
      NUMBER     CONDITION  CODES                     COORDINATES
                              X    Y    Z               X               Y              Z
         1                   1    1    1             -1.000       -1.000        2.000
         2                   0    0    0             -1.000        1.000        2.000
         3                   1    1    1             -1.000       -1.000        0.000
         4                   0    0    0             -1.000        1.000        0.000
         5                   1    1    1              1.000       -1.000        2.000
         6                   0    0    0              1.000        1.000        2.000
         7                   1    1    1              1.000       -1.000        0.000
         8                   0    0    1              1.000        1.000        0.000
         9                   0    0    0              1.000       -1.000        1.000
        10                   0    0    0              1.000        0.000        0.000
        11                   0    0    0              1.000        1.000        1.000
        12                   0    0    0              1.000        0.000        2.000
        13                   0    0    0             -1.000        0.000        2.000
        14                   0    0    0             -1.000        1.000        1.000
        15                   0    0    0             -1.000        0.000        0.000
        16                   0    0    0             -1.000       -1.000        1.000
        17                   0    0    0              0.000        1.000        2.000
        18                   0    0    0              0.000       -1.000        2.000
        19                   0    0    0              0.000        1.000        0.000
        20                   0    0    0              0.000       -1.000        0.000


 EQUATION NUMBERS

         NODE         DEGREES OF FREEDOM
       NUMBER
          N                  X         Y         Z
          1                   0         0         0
          2                   1         2         3
          3                   0         0         0
          4                   4         5         6
          5                   0         0         0
          6                   7         8         9
          7                   0         0         0
          8                  10        11         0
          9                  12        13        14
         10                  15        16        17
         11                  18        19        20
         12                  21        22        23
         13                  24        25        26
         14                  27        28        29
         15                  30        31        32
         16                  33        34        35
         17                  36        37        38
         18                  39        40        41
         19                  42        43        44
         20                  45        46        47


 L O A D   C A S E   D A T A

     LOAD CASE NUMBER . . . . . . . =          1
     NUMBER OF CONCENTRATED LOADS . =          1


         NODE           DIRECTION           LOAD
       NUMBER                               MAGNITUDE
            2                      2              -1.00000e+00

 E L E M E N T   G R O U P   D A T A


 E L E M E N T   D E F I N I T I O N

 ELEMENT TYPE  . . . . . . . . . . . . .( NPAR(1) ) . . =          4
     EQ.1, TRUSS ELEMENTS
     EQ.2, PLANE STRESS
     EQ.3, SOLID C3D8
     EQ.4, SOLID C3D20
 NUMBER OF ELEMENTS. . . . . . . . . . .( NPAR(2) ) . . =          1

 M A T E R I A L   D E F I N I T I O N

 NUMBER OF DIFFERENT SETS OF MATERIAL
 AND CROSS-SECTIONAL  CONSTANTS  . . . .( NPAR(3) ) . . =          1
     SET          YOUNG'S       POSSION RATIO         DENSITY
   NUMBER         MODULUS
                     E                  nu              rho
     1          2.10000e+05      3.000000e-01     7.800000e-09


 E L E M E N T   I N F O R M A T I O N

      ELEMENT 	 NODE 	 NODE 	 NODE 	 NODE 	 NODE 	 NODE 	 NODE 	 NODE 	 NODE 	 NODE 	 NODE 	 NODE 	 NODE 	 NODE 	 NODE 	 NODE 	 NODE 	 NODE 	 NODE 	 NODE 	    MATERIAL
      NUMBER-N 	   I1 	   I2 	   I3 	   I4 	   I5 	   I6 	   I7 	   I8 	   I9 	   I10 	   I11 	   I12 	   I13 	   I14 	   I15 	   I16 	   I17 	   I18 	   I19 	   I20 	    SET NUMBER
            1       5       6       8       7       1       2       4       3      12      11      10       9      13      14      15      16      18      17      19      20         1


  TOTAL SYSTEM DATA

     NUMBER OF EQUATIONS . . . . . . . . . . . . . .(NEQ) =         47
     NUMBER OF MATRIX ELEMENTS . . . . . . . . . . .(NWK) =       1128
     MAXIMUM HALF BANDWIDTH  . . . . . . . . . . . .(MK ) =         47
     MEAN HALF BANDWIDTH . . . . . . . . . . . . . .(MM ) =         24


 LOAD CASE   1

 D I S P L A C E M E N T S

       NODE                  X-DISPLACEMENT         Y-DISPLACEMENT         Z-DISPLACEMENT 
          1                   0.000000e+00           0.000000e+00           0.000000e+00
          2                  -3.645984e-05          -1.604892e-04           1.057143e-04
          3                   0.000000e+00           0.000000e+00           0.000000e+00
          4                   1.428571e-05          -3.951083e-05          -3.496873e-05
          5                   0.000000e+00           0.000000e+00           0.000000e+00
          6                  -3.428571e-05          -3.951083e-05           5.496873e-05
          7                   0.000000e+00           0.000000e+00           0.000000e+00
          8                  -6.925444e-05           3.951083e-05           0.000000e+00
          9                   6.756564e-05           6.292278e-05          -2.900012e-06
         10                  -8.133568e-05           2.026581e-05          -5.663711e-05
         11                   4.309354e-05          -7.113707e-05           2.970882e-05
         12                  -9.877997e-05          -2.133724e-05           8.633568e-05
         13                   7.062139e-05          -7.330562e-05           6.735140e-05
         14                  -1.141650e-04          -9.292278e-05           3.421975e-05
         15                   5.163711e-05          -2.133724e-05          -3.919282e-05
         16                  -5.435136e-05           6.137069e-06          -2.457130e-06
         17                  -3.421975e-05           1.042278e-05          -2.380782e-05
         18                   2.457130e-06          -9.720850e-05          -4.899421e-05
         19                  -2.970882e-05           3.220850e-05           9.487925e-05
         20                   2.900012e-06          -4.042278e-05           3.577993e-05


  S T R A I N AND S T R E S S  C A L C U L A T I O N S  F O R  E L E M E N T  G R O U P    1

  ELEMENT        GAUSS POINT                      			     STRAIN    			     STRESS
  NUMBER            NUMBER                  E11               E22               E33               E12               E23               E13               S11               S22               S33               S12               S23               S13
       1              1           -9.364463e-06     1.487946e-06     5.282361e-06     4.757649e-06    -6.034605e-07    -3.368797e-06        -1.827013e+00    -7.393163e-02     5.390123e-01     3.842717e-01    -4.874104e-02    -2.720951e-01
       1              2           -4.504278e-06    -7.098626e-07    -4.504278e-06    -3.698699e-06     3.698699e-06     5.087551e-06        -1.905038e+00    -1.292094e+00    -1.905038e+00    -2.987410e-01     2.987410e-01     4.109176e-01
       1              3            9.081155e-07     7.779259e-07     9.081155e-07    -1.662411e-06     1.662411e-06     5.087551e-06         4.609877e-01     4.399570e-01     4.609877e-01    -1.342717e-01     1.342717e-01     4.109176e-01
       1              4            5.282361e-06     1.487946e-06    -9.364463e-06     6.034605e-07    -4.757649e-06    -3.368797e-06         5.390123e-01    -7.393163e-02    -1.827013e+00     4.874104e-02    -3.842717e-01    -2.720951e-01
       1              5            2.072773e-06     1.056063e-06    -1.851831e-06    -3.521905e-06     1.839205e-06     4.503526e-07         4.895467e-01     3.253088e-01    -1.444279e-01    -2.844615e-01     1.485512e-01     3.637463e-02
       1              6            4.117703e-06    -9.512411e-06     4.117703e-06     4.934443e-06    -4.934443e-06    -1.815519e-06         5.104533e-01    -1.691334e+00     5.104533e-01     3.985512e-01    -3.985512e-01    -1.466381e-01
       1              7           -4.699041e-07     5.468063e-07    -4.699041e-07     4.266667e-07    -4.266667e-07    -1.815519e-06        -1.235213e-01     4.071656e-02    -1.235213e-01     3.446154e-02    -3.446154e-02    -1.466381e-01
       1              8           -1.851831e-06     1.056063e-06     2.072773e-06    -1.839205e-06     3.521905e-06     4.503526e-07        -1.444279e-01     3.253088e-01     4.895467e-01    -1.485512e-01     2.844615e-01     3.637463e-02


 S O L U T I O N   T I M E   L O G   I N   S E C

     TIME FOR INPUT PHASE  . . . . . . . . . . . . . . =         0.02
     TIME FOR CALCULATION OF STIFFNESS MATRIX  . . . . =         0.01
     TIME FOR FACTORIZATION OF STIFFNESS MATRIX  . . . =         0.00
     TIME FOR LOAD CASE SOLUTIONS  . . . . . . . . . . =         0.02

      T O T A L   S O L U T I O N   T I M E  . . . . . =         0.06
