            Node            U.U1            U.U2            U.U3           E.E11           E.E22           E.E33           E.E12           E.E13           E.E23           S.S11           S.S22           S.S33           S.S12           S.S13           S.S23
               1    -1.00000E-36             -0.    -8.57143E-06     14.2857E-06    -4.28570E-06    -4.28570E-06    -713.490E-24    -38.4315E-21    -32.4570E-21         2.99999     4.39955E-15     3.88712E-15    -57.6276E-18    -3.10409E-15    -2.62153E-15
               2    -1.00000E-36    -8.57143E-06    -8.57143E-06     14.2857E-06    -4.28570E-06    -4.28570E-06     12.3025E-21     27.5927E-21    -5.78796E-21         2.99999    -2.45369E-15    -10.1338E-15     993.665E-18     2.22864E-15    -467.489E-18
               3    -1.00000E-36             -0.             -0.     14.2857E-06    -4.28570E-06    -4.28570E-06    -4.57371E-21     204.540E-24     1.01990E-21         2.99999    -6.99518E-15     7.96536E-15    -369.415E-18     16.5204E-18     82.3769E-18
               4    -1.00000E-36    -8.57143E-06             -0.     14.2857E-06    -4.28570E-06    -4.28570E-06     35.1417E-21    -8.08967E-21     2.87138E-21         2.99999    -3.12027E-15    -5.96454E-15     2.83837E-15    -653.397E-18     231.919E-18
               5     28.5714E-06             -0.    -8.57143E-06     14.2857E-06    -4.28570E-06    -4.28570E-06     71.9489E-21     25.2930E-21    -8.31433E-21         2.99999     3.44100E-15     10.0724E-15     5.81126E-15     2.04290E-15    -671.541E-18
               6     28.5714E-06    -8.57143E-06    -8.57143E-06     14.2857E-06    -4.28570E-06    -4.28570E-06    -66.8887E-21    -109.526E-21     15.4482E-21         2.99999     3.73854E-15     7.12130E-15    -5.40255E-15    -8.84637E-15     1.24774E-15
               7     28.5714E-06             -0.             -0.     14.2857E-06    -4.28570E-06    -4.28570E-06     33.7018E-21     5.43371E-21     256.763E-24         2.99999     3.88464E-15     5.79161E-15     2.72207E-15     438.876E-18     20.7385E-18
               8     28.5714E-06    -8.57143E-06             -0.     14.2857E-06    -4.28570E-06    -4.28570E-06    -85.9543E-21     146.220E-21    -9.45531E-21         2.99999    -378.093E-18    -2.80157E-15    -6.94246E-15     11.8101E-15    -763.698E-18
               9     28.5714E-06              0.    -4.28571E-06     14.2857E-06    -4.28572E-06    -4.28572E-06     88.3241E-21    -1.90186E-21    -10.0597E-21         3.00000     644.969E-18     4.55803E-15     7.13387E-15    -153.612E-18    -812.515E-18
              10     28.5714E-06    -4.28571E-06              0.     14.2857E-06    -4.28572E-06    -4.28572E-06    -21.3935E-21     78.2930E-21    -3.63605E-21         3.00000     6.93447E-15     4.85098E-15    -1.72794E-15     6.32367E-15    -293.681E-18
              11     28.5714E-06    -8.57143E-06    -4.28571E-06     14.2857E-06    -4.28572E-06    -4.28572E-06    -64.9257E-21     14.7675E-21    -750.873E-24         3.00000     5.14125E-15     5.33493E-15    -5.24400E-15     1.19276E-15    -60.6474E-18
              12     28.5714E-06    -4.28571E-06    -8.57143E-06     14.2857E-06    -4.28572E-06    -4.28572E-06    -3.65752E-21    -36.6949E-21    -1.67114E-21         3.00000     5.97519E-15     10.8241E-15    -295.415E-18    -2.96382E-15    -134.977E-18
              13     4.00000E-36    -4.28571E-06    -8.57143E-06     14.2857E-06    -4.28572E-06    -4.28572E-06    -4.71743E-21    -18.4831E-21    -9.78707E-21         3.00000     1.77462E-15    -1.35995E-15    -381.023E-18    -1.49286E-15    -790.494E-18
              14     4.00000E-36    -8.57143E-06    -4.28571E-06     14.2857E-06    -4.28572E-06    -4.28572E-06     4.94361E-21    -2.19802E-21     180.597E-24         3.00000    -3.65491E-15    -7.48162E-15     399.291E-18    -177.532E-18     14.5867E-18
              15     4.00000E-36    -4.28571E-06              0.     14.2857E-06    -4.28572E-06    -4.28572E-06     13.6337E-21     1.21363E-21     10.1297E-21         3.00000    -5.77781E-15    -116.654E-18     1.10118E-15     98.0241E-18     818.168E-18
              16     4.00000E-36              0.    -4.28571E-06     14.2857E-06    -4.28572E-06    -4.28572E-06    -1.68404E-21    -36.5138E-21    -19.0103E-21         3.00000    -5.56067E-15     1.17838E-15    -136.019E-18    -2.94920E-15    -1.53545E-15
              17     14.2857E-06    -8.57143E-06    -8.57143E-06     14.2857E-06    -4.28572E-06    -4.28572E-06    -35.8828E-21    -22.1880E-21     10.5953E-21         3.00000    -1.84040E-15    -3.54095E-15    -2.89822E-15    -1.79210E-15     855.777E-18
              18     14.2857E-06              0.    -8.57143E-06     14.2857E-06    -4.28572E-06    -4.28572E-06     32.6441E-21     380.142E-24    -20.7483E-21         3.00000     2.72032E-15     1.98368E-15     2.63664E-15     30.7036E-18    -1.67583E-15
              19     14.2857E-06    -8.57143E-06              0.     14.2857E-06    -4.28572E-06    -4.28572E-06    -45.3143E-21     99.2521E-21    -5.43911E-21         3.00000    -2.15287E-15    -7.18939E-15    -3.66001E-15     8.01652E-15    -439.313E-18
              20     14.2857E-06              0.              0.     14.2857E-06    -4.28572E-06    -4.28572E-06     23.2126E-21     12.9412E-21    -430.943E-24         3.00000    -4.99364E-15     185.608E-18     1.87486E-15     1.04525E-15    -34.8069E-18
-----------------------------------------------------------------------------------------------------------------------------------------------------------------------------------------------------------------------------------------------------------------

         Element             Int           E.E11           E.E22           E.E33           E.E12           E.E13           E.E23           S.S11           S.S22           S.S33           S.S12           S.S13           S.S23
               1               1     14.2857E-06    -4.28571E-06    -4.28571E-06     57.1747E-21     5.08220E-21    -8.57621E-21              3.     2.66454E-15     6.77236E-15     4.61796E-15     410.485E-18    -692.694E-18
               1               2     14.2857E-06    -4.28571E-06    -4.28571E-06     7.25272E-21    -25.1992E-21     635.275E-24              3.     4.44089E-15     7.77156E-15     585.797E-18    -2.03532E-15     51.3106E-18
               1               3     14.2857E-06    -4.28571E-06    -4.28571E-06    -42.9340E-21    -55.4807E-21     9.10560E-21              3.     3.77476E-15     5.99520E-15    -3.46774E-15    -4.48113E-15     735.453E-18
               1               4     14.2857E-06    -4.28571E-06    -4.28571E-06     67.7626E-21     1.69407E-21    -7.59683E-21              3.     888.178E-18     4.21885E-15     5.47314E-15     136.828E-18    -613.590E-18
               1               5     14.2857E-06    -4.28571E-06    -4.28571E-06     21.8111E-21     6.98802E-21    -2.96462E-21              3.     4.44089E-15     6.32827E-15     1.76167E-15     564.417E-18    -239.450E-18
               1               6     14.2857E-06    -4.28571E-06    -4.28571E-06    -36.6342E-21     15.6172E-21    -211.758E-24              3.     4.66294E-15     4.99600E-15    -2.95891E-15     1.26139E-15    -17.1036E-18
               1               7     14.2857E-06    -4.28571E-06    -4.28571E-06     38.5400E-21     15.6701E-21    -2.59404E-21              3.     1.99840E-15     3.66374E-15     3.11285E-15     1.26566E-15    -209.518E-18
               1               8     14.2857E-06    -4.28571E-06    -4.28571E-06    -2.96462E-21     55.6924E-21    -3.28225E-21              3.     4.66294E-15     3.88578E-15    -239.450E-18     4.49823E-15    -265.105E-18
               1               9     14.2857E-06    -4.28571E-06    -4.28571E-06    -55.0571E-21     98.7852E-21    -6.14099E-21              3.     2.44249E-15     111.022E-18    -4.44692E-15     7.97881E-15    -496.003E-18
               1              10     14.2857E-06    -4.28571E-06    -4.28571E-06     29.3285E-21    -5.92923E-21    -11.4349E-21              3.     1.11022E-15     1.77636E-15     2.36884E-15    -478.899E-18    -923.592E-18
               1              11     14.2857E-06    -4.28571E-06    -4.28571E-06     529.396E-24    -14.8231E-21     4.65868E-21              3.     1.55431E-15     1.77636E-15     42.7589E-18    -1.19725E-15     376.278E-18
               1              12     14.2857E-06    -4.28571E-06    -4.28571E-06    -24.8816E-21    -16.4113E-21     9.31736E-21              3.              0.    -888.178E-18    -2.00967E-15    -1.32553E-15     752.556E-18
               1              13     14.2857E-06    -4.28571E-06    -4.28571E-06     37.2694E-21    -847.033E-24    -6.77626E-21              3.    -2.44249E-15     888.178E-18     3.01022E-15    -68.4142E-18    -547.314E-18
               1              14     14.2857E-06    -4.28571E-06    -4.28571E-06     10.1644E-21     7.19978E-21     847.033E-24              3.     1.33227E-15     2.33147E-15     820.970E-18     581.521E-18     68.4142E-18
               1              15     14.2857E-06    -4.28571E-06    -4.28571E-06    -18.6347E-21     17.5759E-21     2.54110E-21              3.     1.33227E-15     333.067E-18    -1.50511E-15     1.41959E-15     205.243E-18
               1              16     14.2857E-06    -4.28571E-06    -4.28571E-06     25.4110E-21     13.5525E-21    -1.05879E-21              3.    -3.77476E-15     444.089E-18     2.05243E-15     1.09463E-15    -85.5177E-18
               1              17     14.2857E-06    -4.28571E-06    -4.28571E-06     1.69407E-21     37.6930E-21     847.033E-24              3.    -444.089E-18     222.045E-18     136.828E-18     3.04443E-15     68.4142E-18
               1              18     14.2857E-06    -4.28571E-06    -4.28571E-06    -28.7991E-21     68.3979E-21    -2.11758E-21              3.    -444.089E-18    -3.33067E-15    -2.32608E-15     5.52445E-15    -171.035E-18
               1              19     14.2857E-06    -4.28571E-06    -4.28571E-06     4.76456E-21    -28.7991E-21    -20.0112E-21              3.     1.55431E-15     1.66533E-15     384.830E-18    -2.32608E-15    -1.61629E-15
               1              20     14.2857E-06    -4.28571E-06    -4.28571E-06    -1.69407E-21    -16.7289E-21    -3.59989E-21              3.     1.55431E-15    -111.022E-18    -136.828E-18    -1.35118E-15    -290.760E-18
               1              21     14.2857E-06    -4.28571E-06    -4.28571E-06    -2.69992E-21     5.50571E-21     635.275E-24              3.    -1.33227E-15    -5.66214E-15    -218.070E-18     444.692E-18     51.3106E-18
               1              22     14.2857E-06    -4.28571E-06    -4.28571E-06     9.10560E-21    -22.0229E-21    -11.4085E-21              3.    -3.33067E-15     1.55431E-15     735.453E-18    -1.77877E-15    -921.454E-18
               1              23     14.2857E-06    -4.28571E-06    -4.28571E-06     6.77626E-21    -9.10560E-21    -423.516E-24              3.     666.134E-18     1.99840E-15     547.314E-18    -735.453E-18    -34.2071E-18
               1              24     14.2857E-06    -4.28571E-06    -4.28571E-06     635.275E-24     2.48816E-21     1.90582E-21              3.    -1.11022E-15    -3.33067E-15     51.3106E-18     200.967E-18     153.932E-18
               1              25     14.2857E-06    -4.28571E-06    -4.28571E-06     6.77626E-21    -1.69407E-21    -264.698E-24              3.    -6.21725E-15     2.99760E-15     547.314E-18    -136.828E-18    -21.3794E-18
               1              26     14.2857E-06    -4.28571E-06    -4.28571E-06     9.74088E-21     6.98802E-21     5.61159E-21              3.    -3.33067E-15     333.067E-18     786.763E-18     564.417E-18     453.244E-18
               1              27     14.2857E-06    -4.28571E-06    -4.28571E-06     9.31736E-21     13.6584E-21     3.17637E-21              3.    -2.66454E-15    -4.44089E-15     752.556E-18     1.10318E-15     256.553E-18




