
 C3D20_ne1_P 

 C O N T R O L   I N F O R M A T I O N

      NUMBER OF NODAL POINTS . . . . . . . . . . (NUMNP)  =         20 
      NUMBER OF ELEMENT GROUPS . . . . . . . . . (NUMEG)  =          1 
      NUMBER OF LOAD CASES . . . . . . . . . . . (NLCASE) =          1 
      SOLUTION MODE  . . . . . . . . . . . . . . (MODEX)  =          2 
         EQ.0, DATA CHECK 
         EQ.1, EXECUTION - 一维变带宽存储刚度矩阵
         EQ.2, EXECUTION - Matlab稀疏矩阵左除R


 N O D A L   P O I N T   D A T A 

       NODE                BOUNDARY                           NODAL POINT
      NUMBER     CONDITION  CODES                     COORDINATES
                              X    Y    Z               X               Y              Z
         1                   1    1    0             -1.000       -1.000        2.000
         2                   1    0    0             -1.000        1.000        2.000
         3                   1    1    1             -1.000       -1.000        0.000
         4                   1    0    1             -1.000        1.000        0.000
         5                   0    1    0              1.000       -1.000        2.000
         6                   0    0    0              1.000        1.000        2.000
         7                   0    1    1              1.000       -1.000        0.000
         8                   0    0    1              1.000        1.000        0.000
         9                   0    1    0              1.000       -1.000        1.000
        10                   0    0    1              1.000        0.000        0.000
        11                   0    0    0              1.000        1.000        1.000
        12                   0    0    0              1.000        0.000        2.000
        13                   1    0    0             -1.000        0.000        2.000
        14                   1    0    0             -1.000        1.000        1.000
        15                   1    0    1             -1.000        0.000        0.000
        16                   1    1    0             -1.000       -1.000        1.000
        17                   0    0    0              0.000        1.000        2.000
        18                   0    1    0              0.000       -1.000        2.000
        19                   0    0    1              0.000        1.000        0.000
        20                   0    1    1              0.000       -1.000        0.000


 EQUATION NUMBERS

         NODE         DEGREES OF FREEDOM
       NUMBER
          N                  X         Y         Z
          1                   0         0         1
          2                   0         2         3
          3                   0         0         0
          4                   0         4         0
          5                   5         0         6
          6                   7         8         9
          7                  10         0         0
          8                  11        12         0
          9                  13         0        14
         10                  15        16         0
         11                  17        18        19
         12                  20        21        22
         13                   0        23        24
         14                   0        25        26
         15                   0        27         0
         16                   0         0        28
         17                  29        30        31
         18                  32         0        33
         19                  34        35         0
         20                  36         0         0


 L O A D   C A S E   D A T A

     LOAD CASE NUMBER . . . . . . . =          1
     NUMBER OF CONCENTRATED LOADS . =          8


         NODE           DIRECTION           LOAD
       NUMBER                               MAGNITUDE
            5                      1              -1.00000e+00            6                      1              -1.00000e+00            7                      1              -1.00000e+00            8                      1              -1.00000e+00            9                      1               4.00000e+00           10                      1               4.00000e+00           11                      1               4.00000e+00           12                      1               4.00000e+00

 E L E M E N T   G R O U P   D A T A


 E L E M E N T   D E F I N I T I O N

 ELEMENT TYPE  . . . . . . . . . . . . .( NPAR(1) ) . . =          4
     EQ.1, TRUSS ELEMENTS
     EQ.2, PLANE STRESS
     EQ.3, SOLID C3D8
     EQ.4, SOLID C3D20
 NUMBER OF ELEMENTS. . . . . . . . . . .( NPAR(2) ) . . =          1

 M A T E R I A L   D E F I N I T I O N

 NUMBER OF DIFFERENT SETS OF MATERIAL
 AND CROSS-SECTIONAL  CONSTANTS  . . . .( NPAR(3) ) . . =          1
     SET          YOUNG'S       POSSION RATIO         DENSITY
   NUMBER         MODULUS
                     E                  nu              rho
     1          2.10000e+05      3.000000e-01     7.800000e-09


 E L E M E N T   I N F O R M A T I O N

      ELEMENT 	 NODE 	 NODE 	 NODE 	 NODE 	 NODE 	 NODE 	 NODE 	 NODE 	 NODE 	 NODE 	 NODE 	 NODE 	 NODE 	 NODE 	 NODE 	 NODE 	 NODE 	 NODE 	 NODE 	 NODE 	    MATERIAL
      NUMBER-N 	   I1 	   I2 	   I3 	   I4 	   I5 	   I6 	   I7 	   I8 	   I9 	   I10 	   I11 	   I12 	   I13 	   I14 	   I15 	   I16 	   I17 	   I18 	   I19 	   I20 	    SET NUMBER
            1       5       6       8       7       1       2       4       3      12      11      10       9      13      14      15      16      18      17      19      20         1


  TOTAL SYSTEM DATA

     NUMBER OF EQUATIONS . . . . . . . . . . . . . .(NEQ) =         36
     NUMBER OF MATRIX ELEMENTS . . . . . . . . . . .(NWK) =        666
     MAXIMUM HALF BANDWIDTH  . . . . . . . . . . . .(MK ) =         36
     MEAN HALF BANDWIDTH . . . . . . . . . . . . . .(MM ) =         19


 LOAD CASE   1

 D I S P L A C E M E N T S

       NODE                  X-DISPLACEMENT         Y-DISPLACEMENT         Z-DISPLACEMENT 
          1                   0.000000e+00           0.000000e+00          -8.571429e-06
          2                   0.000000e+00          -8.571429e-06          -8.571429e-06
          3                   0.000000e+00           0.000000e+00           0.000000e+00
          4                   0.000000e+00          -8.571429e-06           0.000000e+00
          5                   2.857143e-05           0.000000e+00          -8.571429e-06
          6                   2.857143e-05          -8.571429e-06          -8.571429e-06
          7                   2.857143e-05           0.000000e+00           0.000000e+00
          8                   2.857143e-05          -8.571429e-06           0.000000e+00
          9                   2.857143e-05           0.000000e+00          -4.285714e-06
         10                   2.857143e-05          -4.285714e-06           0.000000e+00
         11                   2.857143e-05          -8.571429e-06          -4.285714e-06
         12                   2.857143e-05          -4.285714e-06          -8.571429e-06
         13                   0.000000e+00          -4.285714e-06          -8.571429e-06
         14                   0.000000e+00          -8.571429e-06          -4.285714e-06
         15                   0.000000e+00          -4.285714e-06           0.000000e+00
         16                   0.000000e+00           0.000000e+00          -4.285714e-06
         17                   1.428571e-05          -8.571429e-06          -8.571429e-06
         18                   1.428571e-05           0.000000e+00          -8.571429e-06
         19                   1.428571e-05          -8.571429e-06           0.000000e+00
         20                   1.428571e-05           0.000000e+00           0.000000e+00


  S T R A I N AND S T R E S S  C A L C U L A T I O N S  F O R  E L E M E N T  G R O U P    1

  ELEMENT        GAUSS POINT                      			                     STRAIN    																     STRESS
  NUMBER            NUMBER             E11              E22              E33              E12              E23              E13                  S11              S22              S33              S12              S23              S13
       1              1            1.428571e-05    -4.285714e-06    -4.285714e-06     3.006274e-21     3.531641e-21     1.944502e-22         3.000000e+00     1.554312e-15     2.886580e-15     2.428145e-16     2.852480e-16     1.570559e-17
       1              2            1.428571e-05    -4.285714e-06    -4.285714e-06    -1.293924e-20     4.432536e-21    -2.995567e-21         3.000000e+00    -7.771561e-16     1.110223e-15    -1.045092e-15     3.580125e-16    -2.419497e-16
       1              3            1.428571e-05    -4.285714e-06    -4.285714e-06    -2.580635e-20     9.208601e-21     4.230886e-22         3.000000e+00    -4.884981e-15    -6.661338e-16    -2.084359e-15     7.437717e-16     3.417254e-17
       1              4            1.428571e-05    -4.285714e-06    -4.285714e-06     3.017339e-21     6.045301e-21    -7.110671e-21         3.000000e+00     2.220446e-16     3.108624e-15     2.437082e-16     4.882743e-16    -5.743234e-16
       1              5            1.428571e-05    -4.285714e-06    -4.285714e-06    -1.905824e-21    -1.438745e-23    -2.572051e-21         3.000000e+00     0.000000e+00     2.220446e-16    -1.539319e-16    -1.162063e-18    -2.077426e-16
       1              6            1.428571e-05    -4.285714e-06    -4.285714e-06    -8.404101e-21     4.113330e-21    -3.960767e-21         3.000000e+00    -1.776357e-15    -2.664535e-15    -6.787928e-16     3.322305e-16    -3.199081e-16
       1              7            1.428571e-05    -4.285714e-06    -4.285714e-06     5.867962e-21     1.294052e-20    -1.546837e-20         3.000000e+00    -1.998401e-15     3.108624e-15     4.739507e-16     1.045196e-15    -1.249368e-15
       1              8            1.428571e-05    -4.285714e-06    -4.285714e-06     1.119223e-20    -4.037794e-21    -5.113150e-21         3.000000e+00     1.110223e-16    -4.440892e-16     9.039882e-16    -3.261295e-16    -4.129852e-16
       1              9            1.428571e-05    -4.285714e-06    -4.285714e-06     2.563683e-22    -1.128332e-21    -4.243494e-21         3.000000e+00     4.551914e-15    -1.998401e-15     2.070667e-17    -9.113452e-17    -3.427438e-16
       1             10            1.428571e-05    -4.285714e-06    -4.285714e-06     6.592660e-21     2.964745e-21    -5.315495e-23         3.000000e+00    -2.109424e-15    -6.661338e-16     5.324841e-16     2.394601e-16    -4.293284e-18
       1             11            1.428571e-05    -4.285714e-06    -4.285714e-06     1.036803e-21     6.352747e-22    -1.482308e-21         3.000000e+00    -7.771561e-16     1.110223e-15     8.374182e-17     5.131065e-17    -1.197248e-16
       1             12            1.428571e-05    -4.285714e-06    -4.285714e-06    -6.341281e-22     2.522264e-21    -4.574351e-21         3.000000e+00    -3.219647e-15    -2.220446e-16    -5.121804e-17     2.037213e-16    -3.694668e-16
       1             13            1.428571e-05    -4.285714e-06    -4.285714e-06     1.852669e-21     1.323618e-21     5.821198e-22         3.000000e+00    -1.776357e-15     2.220446e-16     1.496387e-16     1.069076e-16     4.701737e-17
       1             14            1.428571e-05    -4.285714e-06    -4.285714e-06    -1.694066e-21    -2.541099e-21     2.117582e-22         3.000000e+00    -7.771561e-16     4.440892e-16    -1.368284e-16    -2.052426e-16     1.710355e-17
       1             15            1.428571e-05    -4.285714e-06    -4.285714e-06    -4.711836e-21     1.217739e-21    -1.958979e-21         3.000000e+00    -5.551115e-16     0.000000e+00    -3.805714e-16     9.835585e-17    -1.582252e-16
       1             16            1.428571e-05    -4.285714e-06    -4.285714e-06     4.349047e-22     1.060084e-22    -2.649132e-22         3.000000e+00    -3.219647e-15     2.220446e-16     3.512692e-17     8.562213e-18    -2.139683e-17
       1             17            1.428571e-05    -4.285714e-06    -4.285714e-06    -1.936776e-21    -6.140989e-21     4.870439e-21         3.000000e+00    -9.992007e-16     0.000000e+00    -1.564319e-16    -4.960029e-16     3.933816e-16
       1             18            1.428571e-05    -4.285714e-06    -4.285714e-06    -9.254723e-21     1.190817e-22     5.466063e-21         3.000000e+00     2.775558e-15     4.440892e-16    -7.474968e-16     9.618137e-18     4.414897e-16
       1             19            1.428571e-05    -4.285714e-06    -4.285714e-06     4.114774e-21    -1.295190e-21     1.641196e-21         3.000000e+00    -3.885781e-15     0.000000e+00     3.323472e-16    -1.046115e-16     1.325581e-16
       1             20            1.428571e-05    -4.285714e-06    -4.285714e-06     9.930649e-21    -7.797059e-22     1.460320e-21         3.000000e+00    -1.332268e-15     1.110223e-15     8.020909e-16    -6.297625e-17     1.179489e-16
       1             21            1.428571e-05    -4.285714e-06    -4.285714e-06     1.993343e-20     6.967417e-22     1.302212e-20         3.000000e+00    -3.219647e-15    -2.886580e-15     1.610008e-15     5.627529e-17     1.051787e-15
       1             22            1.428571e-05    -4.285714e-06    -4.285714e-06     7.938780e-22    -6.577868e-21     3.826299e-21         3.000000e+00    -1.887379e-15     1.332268e-15     6.412092e-17    -5.312894e-16     3.090472e-16
       1             23            1.428571e-05    -4.285714e-06    -4.285714e-06     2.329341e-21    -1.679678e-21     2.730869e-21         3.000000e+00    -1.554312e-15     8.881784e-16     1.881390e-16    -1.356663e-16     2.205702e-16
       1             24            1.428571e-05    -4.285714e-06    -4.285714e-06    -1.292098e-21     6.870414e-21     6.142136e-21         3.000000e+00    -1.887379e-15    -1.998401e-15    -1.043618e-16     5.549180e-16     4.960956e-16
       1             25            1.428571e-05    -4.285714e-06    -4.285714e-06    -9.887883e-22    -1.173457e-20     2.979266e-21         3.000000e+00    -1.443290e-15     2.664535e-15    -7.986367e-17    -9.477924e-16     2.406330e-16
       1             26            1.428571e-05    -4.285714e-06    -4.285714e-06    -9.089292e-21    -5.709622e-21     9.827869e-22         3.000000e+00    -3.330669e-16     2.442491e-15    -7.341351e-16    -4.611617e-16     7.937895e-17
       1             27            1.428571e-05    -4.285714e-06    -4.285714e-06    -1.799083e-20     1.146782e-20     4.263320e-21         3.000000e+00    -1.554312e-15    -1.110223e-15    -1.453105e-15     9.262473e-16     3.443450e-16


Eigenvalues computed using eig:
4.311081e+12     6.155810e+12     6.155810e+12     7.793511e+12     7.793511e+12     8.905513e+12     8.905513e+12     1.522897e+13     1.561728e+13     1.561728e+13     

Frequency computed using eig:
3.304557e+05     3.948778e+05     3.948778e+05     4.443106e+05     4.443106e+05     4.749519e+05     4.749519e+05     6.210911e+05     6.289596e+05     6.289596e+05     

Eigenvalues computed using stapmat:
4.311084e+12     6.155816e+12     6.155817e+12     7.793513e+12     7.793531e+12     8.905512e+12     8.905472e+12     1.522924e+13     1.561723e+13     1.561726e+13     

Frequency computed using stapmat:
3.304558e+05     3.948780e+05     3.948780e+05     4.443107e+05     4.443112e+05     4.749518e+05     4.749508e+05     6.210967e+05     6.289587e+05     6.289592e+05     

Eigen vector computed using stapmat:
-2.272724e+00     2.240967e+03     1.744629e+02     -3.118361e+02     3.074550e+03     -9.210485e+03     1.362731e+03     1.046888e+04     -5.543700e+02     -5.067774e+03     
-5.811249e+03     2.323967e+03     1.295671e+03     -4.507965e+03     -7.368550e+03     -4.737564e+03     -3.626104e+02     -8.086246e+02     5.540432e+03     5.425126e+03     
5.811183e+03     -2.045832e+03     -1.711884e+03     2.562590e+03     8.230390e+03     7.014732e+02     -4.728950e+03     -8.498287e+02     7.610561e+03     9.728495e+02     
1.959330e+00     -9.732026e+02     -2.035110e+03     -2.476135e+03     -1.839553e+03     3.429286e+03     -8.661517e+03     1.053303e+04     -4.251967e+03     2.544270e+03     
5.806262e+03     2.534017e+03     -9.026273e+02     5.869619e+03     -6.320315e+03     -4.417531e+03     1.785996e+03     -9.953760e+02     -4.677255e+03     6.094440e+03     
-5.806697e+03     -2.315618e+03     1.356403e+03     -4.139187e+03     7.602830e+03     2.032514e+03     4.249270e+03     -1.129882e+03     -7.352190e+03     2.120101e+03     
-1.651570e+00     6.605324e+03     -9.634910e+03     -4.738108e+03     2.146468e+03     2.608400e+03     3.267307e+03     -2.368386e+03     -1.517114e+03     -7.144502e+02     
-1.017098e+01     5.034535e+03     1.054931e+04     4.191592e+03     3.022545e+03     1.543452e+03     -3.909880e+03     -2.308752e+03     1.483402e+03     -9.317720e+02     
1.182255e+01     -1.163986e+04     -9.144017e+02     5.465161e+02     -5.169014e+03     -4.155447e+03     6.407188e+02     -2.282603e+03     1.699168e+02     1.774833e+03     
3.133939e-01     -1.267764e+03     1.860647e+03     2.787971e+03     -1.234997e+03     5.806254e+03     7.317295e+03     1.067596e+04     4.186626e+03     1.938387e+03     
-5.806931e+03     -2.538781e+01     -2.660771e+03     8.647182e+03     -2.342293e+02     2.704773e+03     -3.884867e+03     -1.119272e+03     1.962177e+03     -7.394005e+03     
5.807431e+03     -4.711468e+02     2.623208e+03     -8.432240e+03     -1.910126e+03     3.716164e+03     2.943044e+03     -1.212734e+03     -2.963953e+03     -7.105404e+03     
8.003307e+02     1.178957e+02     8.299472e+01     2.208342e+03     -1.235525e+03     2.098599e+03     2.997387e+03     1.287358e+03     -1.054296e+03     1.283723e+03     
-3.313526e+03     -9.305742e+02     1.316463e+03     -1.320965e+03     3.902394e+03     8.154300e+02     2.153531e+03     -2.753303e+02     -3.555777e+03     3.953580e+03     
-8.003441e+02     -1.070519e+02     -7.141916e+01     2.396021e+03     -8.237554e+02     2.435468e+03     2.729101e+03     1.261094e+03     3.330973e+02     -1.655324e+03     
3.314002e+03     -9.096229e+02     1.330105e+03     -3.792730e+03     -1.585119e+03     1.931326e+03     1.285935e+03     -3.579770e+02     8.347001e+02     -5.268033e+03     
-3.226458e+03     8.270640e+02     -4.106666e+03     2.109271e+03     -1.103487e+03     1.041575e+03     4.283586e+02     1.261662e+02     -1.600838e+01     -5.719081e+02     
3.225437e+03     1.699478e+02     4.187210e+03     -1.851151e+03     -1.499589e+03     8.727631e+02     -6.997692e+02     1.243483e+02     -6.282721e+01     -4.566982e+02     
5.933156e+00     -5.840754e+03     -4.589882e+02     2.530215e+02     -2.382478e+03     -1.834668e+03     2.835522e+02     -1.443916e+03     -9.351762e+01     -1.668795e+03     
3.225345e+03     3.550733e+03     -2.235167e+03     2.213511e+03     -8.420371e+02     1.729385e+02     1.117835e+03     1.343133e+02     -3.362261e+02     3.989532e+02     
-5.103806e+00     2.525875e+03     5.293128e+03     1.930222e+03     1.393643e+03     6.808969e+02     -1.726582e+03     -1.420972e+03     -1.379504e+03     9.790775e+02     
-3.224473e+03     -3.976205e+03     1.337412e+03     -9.164656e+01     2.376227e+03     -8.817028e+02     6.808242e+02     1.314255e+02     -5.189420e+02     1.719823e+02     
-3.315431e+03     1.598950e+03     1.321483e+02     -2.715636e+03     -3.085534e+03     -2.291689e+03     -3.725711e+02     -1.509026e+02     5.220993e+03     1.183422e+03     
8.005505e+02     1.081594e+01     -1.363815e+02     -2.605107e+01     2.545999e+03     -3.631966e+03     3.129797e+02     1.326678e+03     1.628861e+03     2.450144e+02     
-8.005785e+02     1.178026e+02     -6.226576e+01     -1.917416e+03     -1.679060e+03     1.138135e+03     -3.462528e+03     1.332933e+03     1.177120e+03     1.092569e+03     
3.315210e+03     -7.011672e+02     -1.450941e+03     5.263733e+02     4.064622e+03     1.499601e+02     -2.334366e+03     -1.318696e+02     4.087817e+03     3.337540e+03     
1.808572e+00     -8.957844e+02     -1.875915e+03     -1.201666e+03     -9.048597e+02     2.277048e+03     -5.758883e+03     3.977336e+03     -3.621702e+03     2.325754e+03     
-2.101254e+00     2.068516e+03     1.620243e+02     -1.543352e+02     1.501489e+03     -6.123957e+03     9.067297e+02     3.920260e+03     -3.831415e+02     -4.341978e+03     
-8.293499e-01     3.314880e+03     -4.834140e+03     -2.183244e+03     9.888352e+02     1.151582e+03     1.441900e+03     -1.369615e+03     1.555893e+03     7.679678e+02     
-3.232157e+03     3.139673e+03     2.764421e+03     -2.017608e+03     -1.272711e+03     -1.584110e+02     -1.109420e+03     1.505789e+02     3.766838e+02     2.352409e+02     
3.232307e+03     -3.711213e+03     -1.947210e+03     -3.623776e+02     2.341598e+03     -1.044899e+03     -4.154686e+02     1.497747e+02     5.413898e+02     2.073967e+02     
3.312138e+03     1.620511e+03     1.257971e+02     3.266339e+03     -2.479532e+03     -2.080584e+03     1.048503e+03     -3.371305e+02     -4.992803e+03     1.855357e+03     
-8.005347e+02     -1.309884e+01     1.324863e+02     -4.786009e+02     2.502823e+03     -3.569430e+03     7.365182e+02     1.267505e+03     -1.625148e+03     4.502438e+02     
-3.312394e+03     -6.780966e+02     -1.453573e+03     4.036619e+03     -8.168304e+02     1.476592e+03     -1.779260e+03     -4.005914e+02     -1.562513e+03     -5.031245e+03     
8.005761e+02     -1.263635e+02     5.458531e+01     -2.182295e+03     -1.310481e+03     1.537369e+03     -3.306532e+03     1.247567e+03     -6.106631e+02     -1.558815e+03     
2.926823e-01     -1.172732e+03     1.713890e+03     1.356002e+03     -5.966297e+02     3.856682e+03     4.859494e+03     4.104849e+03     3.770049e+03     1.794537e+03     




 S O L U T I O N   T I M E   L O G   I N   S E C

     TIME FOR INPUT PHASE  . . . . . . . . . . . . . . =         0.03
     TIME FOR CALCULATION OF STIFFNESS MATRIX  . . . . =         0.01
     TIME FOR FACTORIZATION OF STIFFNESS MATRIX  . . . =         0.01
     TIME FOR LOAD CASE SOLUTIONS  . . . . . . . . . . =        49.89

      T O T A L   S O L U T I O N   T I M E  . . . . . =        49.93
