# vtk DataFile Version 3.0
VTK from Matlab
ASCII
DATASET POLYDATA
POINTS	5581	double
3.000000e+01 1.500000e+01 0.000000e+00
2.950000e+01 1.500000e+01 0.000000e+00
2.900000e+01 1.500000e+01 0.000000e+00
2.850000e+01 1.500000e+01 0.000000e+00
2.800000e+01 1.500000e+01 0.000000e+00
2.750000e+01 1.500000e+01 0.000000e+00
2.700000e+01 1.500000e+01 0.000000e+00
2.650000e+01 1.500000e+01 0.000000e+00
2.600000e+01 1.500000e+01 0.000000e+00
2.550000e+01 1.500000e+01 0.000000e+00
2.500000e+01 1.500000e+01 0.000000e+00
2.450000e+01 1.500000e+01 0.000000e+00
2.400000e+01 1.500000e+01 0.000000e+00
2.350000e+01 1.500000e+01 0.000000e+00
2.300000e+01 1.500000e+01 0.000000e+00
2.250000e+01 1.500000e+01 0.000000e+00
2.200000e+01 1.500000e+01 0.000000e+00
2.150000e+01 1.500000e+01 0.000000e+00
2.100000e+01 1.500000e+01 0.000000e+00
2.050000e+01 1.500000e+01 0.000000e+00
2.000000e+01 1.500000e+01 0.000000e+00
1.950000e+01 1.500000e+01 0.000000e+00
1.900000e+01 1.500000e+01 0.000000e+00
1.850000e+01 1.500000e+01 0.000000e+00
1.800000e+01 1.500000e+01 0.000000e+00
1.750000e+01 1.500000e+01 0.000000e+00
1.700000e+01 1.500000e+01 0.000000e+00
1.650000e+01 1.500000e+01 0.000000e+00
1.600000e+01 1.500000e+01 0.000000e+00
1.550000e+01 1.500000e+01 0.000000e+00
1.500000e+01 1.500000e+01 0.000000e+00
3.000000e+01 1.450000e+01 0.000000e+00
2.950000e+01 1.450000e+01 0.000000e+00
2.900000e+01 1.450000e+01 0.000000e+00
2.850000e+01 1.450000e+01 0.000000e+00
2.800000e+01 1.450000e+01 0.000000e+00
2.750000e+01 1.450000e+01 0.000000e+00
2.700000e+01 1.450000e+01 0.000000e+00
2.650000e+01 1.450000e+01 0.000000e+00
2.600000e+01 1.450000e+01 0.000000e+00
2.550000e+01 1.450000e+01 0.000000e+00
2.500000e+01 1.450000e+01 0.000000e+00
2.450000e+01 1.450000e+01 0.000000e+00
2.400000e+01 1.450000e+01 0.000000e+00
2.350000e+01 1.450000e+01 0.000000e+00
2.300000e+01 1.450000e+01 0.000000e+00
2.250000e+01 1.450000e+01 0.000000e+00
2.200000e+01 1.450000e+01 0.000000e+00
2.150000e+01 1.450000e+01 0.000000e+00
2.100000e+01 1.450000e+01 0.000000e+00
2.050000e+01 1.450000e+01 0.000000e+00
2.000000e+01 1.450000e+01 0.000000e+00
1.950000e+01 1.450000e+01 0.000000e+00
1.900000e+01 1.450000e+01 0.000000e+00
1.850000e+01 1.450000e+01 0.000000e+00
1.800000e+01 1.450000e+01 0.000000e+00
1.750000e+01 1.450000e+01 0.000000e+00
1.700000e+01 1.450000e+01 0.000000e+00
1.650000e+01 1.450000e+01 0.000000e+00
1.600000e+01 1.450000e+01 0.000000e+00
1.550000e+01 1.450000e+01 0.000000e+00
1.500000e+01 1.450000e+01 0.000000e+00
3.000000e+01 1.400000e+01 0.000000e+00
2.950000e+01 1.400000e+01 0.000000e+00
2.900000e+01 1.400000e+01 0.000000e+00
2.850000e+01 1.400000e+01 0.000000e+00
2.800000e+01 1.400000e+01 0.000000e+00
2.750000e+01 1.400000e+01 0.000000e+00
2.700000e+01 1.400000e+01 0.000000e+00
2.650000e+01 1.400000e+01 0.000000e+00
2.600000e+01 1.400000e+01 0.000000e+00
2.550000e+01 1.400000e+01 0.000000e+00
2.500000e+01 1.400000e+01 0.000000e+00
2.450000e+01 1.400000e+01 0.000000e+00
2.400000e+01 1.400000e+01 0.000000e+00
2.350000e+01 1.400000e+01 0.000000e+00
2.300000e+01 1.400000e+01 0.000000e+00
2.250000e+01 1.400000e+01 0.000000e+00
2.200000e+01 1.400000e+01 0.000000e+00
2.150000e+01 1.400000e+01 0.000000e+00
2.100000e+01 1.400000e+01 0.000000e+00
2.050000e+01 1.400000e+01 0.000000e+00
2.000000e+01 1.400000e+01 0.000000e+00
1.950000e+01 1.400000e+01 0.000000e+00
1.900000e+01 1.400000e+01 0.000000e+00
1.850000e+01 1.400000e+01 0.000000e+00
1.800000e+01 1.400000e+01 0.000000e+00
1.750000e+01 1.400000e+01 0.000000e+00
1.700000e+01 1.400000e+01 0.000000e+00
1.650000e+01 1.400000e+01 0.000000e+00
1.600000e+01 1.400000e+01 0.000000e+00
1.550000e+01 1.400000e+01 0.000000e+00
1.500000e+01 1.400000e+01 0.000000e+00
3.000000e+01 1.350000e+01 0.000000e+00
2.950000e+01 1.350000e+01 0.000000e+00
2.900000e+01 1.350000e+01 0.000000e+00
2.850000e+01 1.350000e+01 0.000000e+00
2.800000e+01 1.350000e+01 0.000000e+00
2.750000e+01 1.350000e+01 0.000000e+00
2.700000e+01 1.350000e+01 0.000000e+00
2.650000e+01 1.350000e+01 0.000000e+00
2.600000e+01 1.350000e+01 0.000000e+00
2.550000e+01 1.350000e+01 0.000000e+00
2.500000e+01 1.350000e+01 0.000000e+00
2.450000e+01 1.350000e+01 0.000000e+00
2.400000e+01 1.350000e+01 0.000000e+00
2.350000e+01 1.350000e+01 0.000000e+00
2.300000e+01 1.350000e+01 0.000000e+00
2.250000e+01 1.350000e+01 0.000000e+00
2.200000e+01 1.350000e+01 0.000000e+00
2.150000e+01 1.350000e+01 0.000000e+00
2.100000e+01 1.350000e+01 0.000000e+00
2.050000e+01 1.350000e+01 0.000000e+00
2.000000e+01 1.350000e+01 0.000000e+00
1.950000e+01 1.350000e+01 0.000000e+00
1.900000e+01 1.350000e+01 0.000000e+00
1.850000e+01 1.350000e+01 0.000000e+00
1.800000e+01 1.350000e+01 0.000000e+00
1.750000e+01 1.350000e+01 0.000000e+00
1.700000e+01 1.350000e+01 0.000000e+00
1.650000e+01 1.350000e+01 0.000000e+00
1.600000e+01 1.350000e+01 0.000000e+00
1.550000e+01 1.350000e+01 0.000000e+00
1.500000e+01 1.350000e+01 0.000000e+00
3.000000e+01 1.300000e+01 0.000000e+00
2.950000e+01 1.300000e+01 0.000000e+00
2.900000e+01 1.300000e+01 0.000000e+00
2.850000e+01 1.300000e+01 0.000000e+00
2.800000e+01 1.300000e+01 0.000000e+00
2.750000e+01 1.300000e+01 0.000000e+00
2.700000e+01 1.300000e+01 0.000000e+00
2.650000e+01 1.300000e+01 0.000000e+00
2.600000e+01 1.300000e+01 0.000000e+00
2.550000e+01 1.300000e+01 0.000000e+00
2.500000e+01 1.300000e+01 0.000000e+00
2.450000e+01 1.300000e+01 0.000000e+00
2.400000e+01 1.300000e+01 0.000000e+00
2.350000e+01 1.300000e+01 0.000000e+00
2.300000e+01 1.300000e+01 0.000000e+00
2.250000e+01 1.300000e+01 0.000000e+00
2.200000e+01 1.300000e+01 0.000000e+00
2.150000e+01 1.300000e+01 0.000000e+00
2.100000e+01 1.300000e+01 0.000000e+00
2.050000e+01 1.300000e+01 0.000000e+00
2.000000e+01 1.300000e+01 0.000000e+00
1.950000e+01 1.300000e+01 0.000000e+00
1.900000e+01 1.300000e+01 0.000000e+00
1.850000e+01 1.300000e+01 0.000000e+00
1.800000e+01 1.300000e+01 0.000000e+00
1.750000e+01 1.300000e+01 0.000000e+00
1.700000e+01 1.300000e+01 0.000000e+00
1.650000e+01 1.300000e+01 0.000000e+00
1.600000e+01 1.300000e+01 0.000000e+00
1.550000e+01 1.300000e+01 0.000000e+00
1.500000e+01 1.300000e+01 0.000000e+00
3.000000e+01 1.250000e+01 0.000000e+00
2.950000e+01 1.250000e+01 0.000000e+00
2.900000e+01 1.250000e+01 0.000000e+00
2.850000e+01 1.250000e+01 0.000000e+00
2.800000e+01 1.250000e+01 0.000000e+00
2.750000e+01 1.250000e+01 0.000000e+00
2.700000e+01 1.250000e+01 0.000000e+00
2.650000e+01 1.250000e+01 0.000000e+00
2.600000e+01 1.250000e+01 0.000000e+00
2.550000e+01 1.250000e+01 0.000000e+00
2.500000e+01 1.250000e+01 0.000000e+00
2.450000e+01 1.250000e+01 0.000000e+00
2.400000e+01 1.250000e+01 0.000000e+00
2.350000e+01 1.250000e+01 0.000000e+00
2.300000e+01 1.250000e+01 0.000000e+00
2.250000e+01 1.250000e+01 0.000000e+00
2.200000e+01 1.250000e+01 0.000000e+00
2.150000e+01 1.250000e+01 0.000000e+00
2.100000e+01 1.250000e+01 0.000000e+00
2.050000e+01 1.250000e+01 0.000000e+00
2.000000e+01 1.250000e+01 0.000000e+00
1.950000e+01 1.250000e+01 0.000000e+00
1.900000e+01 1.250000e+01 0.000000e+00
1.850000e+01 1.250000e+01 0.000000e+00
1.800000e+01 1.250000e+01 0.000000e+00
1.750000e+01 1.250000e+01 0.000000e+00
1.700000e+01 1.250000e+01 0.000000e+00
1.650000e+01 1.250000e+01 0.000000e+00
1.600000e+01 1.250000e+01 0.000000e+00
1.550000e+01 1.250000e+01 0.000000e+00
1.500000e+01 1.250000e+01 0.000000e+00
3.000000e+01 1.200000e+01 0.000000e+00
2.950000e+01 1.200000e+01 0.000000e+00
2.900000e+01 1.200000e+01 0.000000e+00
2.850000e+01 1.200000e+01 0.000000e+00
2.800000e+01 1.200000e+01 0.000000e+00
2.750000e+01 1.200000e+01 0.000000e+00
2.700000e+01 1.200000e+01 0.000000e+00
2.650000e+01 1.200000e+01 0.000000e+00
2.600000e+01 1.200000e+01 0.000000e+00
2.550000e+01 1.200000e+01 0.000000e+00
2.500000e+01 1.200000e+01 0.000000e+00
2.450000e+01 1.200000e+01 0.000000e+00
2.400000e+01 1.200000e+01 0.000000e+00
2.350000e+01 1.200000e+01 0.000000e+00
2.300000e+01 1.200000e+01 0.000000e+00
2.250000e+01 1.200000e+01 0.000000e+00
2.200000e+01 1.200000e+01 0.000000e+00
2.150000e+01 1.200000e+01 0.000000e+00
2.100000e+01 1.200000e+01 0.000000e+00
2.050000e+01 1.200000e+01 0.000000e+00
2.000000e+01 1.200000e+01 0.000000e+00
1.950000e+01 1.200000e+01 0.000000e+00
1.900000e+01 1.200000e+01 0.000000e+00
1.850000e+01 1.200000e+01 0.000000e+00
1.800000e+01 1.200000e+01 0.000000e+00
1.750000e+01 1.200000e+01 0.000000e+00
1.700000e+01 1.200000e+01 0.000000e+00
1.650000e+01 1.200000e+01 0.000000e+00
1.600000e+01 1.200000e+01 0.000000e+00
1.550000e+01 1.200000e+01 0.000000e+00
1.500000e+01 1.200000e+01 0.000000e+00
3.000000e+01 1.150000e+01 0.000000e+00
2.950000e+01 1.150000e+01 0.000000e+00
2.900000e+01 1.150000e+01 0.000000e+00
2.850000e+01 1.150000e+01 0.000000e+00
2.800000e+01 1.150000e+01 0.000000e+00
2.750000e+01 1.150000e+01 0.000000e+00
2.700000e+01 1.150000e+01 0.000000e+00
2.650000e+01 1.150000e+01 0.000000e+00
2.600000e+01 1.150000e+01 0.000000e+00
2.550000e+01 1.150000e+01 0.000000e+00
2.500000e+01 1.150000e+01 0.000000e+00
2.450000e+01 1.150000e+01 0.000000e+00
2.400000e+01 1.150000e+01 0.000000e+00
2.350000e+01 1.150000e+01 0.000000e+00
2.300000e+01 1.150000e+01 0.000000e+00
2.250000e+01 1.150000e+01 0.000000e+00
2.200000e+01 1.150000e+01 0.000000e+00
2.150000e+01 1.150000e+01 0.000000e+00
2.100000e+01 1.150000e+01 0.000000e+00
2.050000e+01 1.150000e+01 0.000000e+00
2.000000e+01 1.150000e+01 0.000000e+00
1.950000e+01 1.150000e+01 0.000000e+00
1.900000e+01 1.150000e+01 0.000000e+00
1.850000e+01 1.150000e+01 0.000000e+00
1.800000e+01 1.150000e+01 0.000000e+00
1.750000e+01 1.150000e+01 0.000000e+00
1.700000e+01 1.150000e+01 0.000000e+00
1.650000e+01 1.150000e+01 0.000000e+00
1.600000e+01 1.150000e+01 0.000000e+00
1.550000e+01 1.150000e+01 0.000000e+00
1.500000e+01 1.150000e+01 0.000000e+00
3.000000e+01 1.100000e+01 0.000000e+00
2.950000e+01 1.100000e+01 0.000000e+00
2.900000e+01 1.100000e+01 0.000000e+00
2.850000e+01 1.100000e+01 0.000000e+00
2.800000e+01 1.100000e+01 0.000000e+00
2.750000e+01 1.100000e+01 0.000000e+00
2.700000e+01 1.100000e+01 0.000000e+00
2.650000e+01 1.100000e+01 0.000000e+00
2.600000e+01 1.100000e+01 0.000000e+00
2.550000e+01 1.100000e+01 0.000000e+00
2.500000e+01 1.100000e+01 0.000000e+00
2.450000e+01 1.100000e+01 0.000000e+00
2.400000e+01 1.100000e+01 0.000000e+00
2.350000e+01 1.100000e+01 0.000000e+00
2.300000e+01 1.100000e+01 0.000000e+00
2.250000e+01 1.100000e+01 0.000000e+00
2.200000e+01 1.100000e+01 0.000000e+00
2.150000e+01 1.100000e+01 0.000000e+00
2.100000e+01 1.100000e+01 0.000000e+00
2.050000e+01 1.100000e+01 0.000000e+00
2.000000e+01 1.100000e+01 0.000000e+00
1.950000e+01 1.100000e+01 0.000000e+00
1.900000e+01 1.100000e+01 0.000000e+00
1.850000e+01 1.100000e+01 0.000000e+00
1.800000e+01 1.100000e+01 0.000000e+00
1.750000e+01 1.100000e+01 0.000000e+00
1.700000e+01 1.100000e+01 0.000000e+00
1.650000e+01 1.100000e+01 0.000000e+00
1.600000e+01 1.100000e+01 0.000000e+00
1.550000e+01 1.100000e+01 0.000000e+00
1.500000e+01 1.100000e+01 0.000000e+00
3.000000e+01 1.050000e+01 0.000000e+00
2.950000e+01 1.050000e+01 0.000000e+00
2.900000e+01 1.050000e+01 0.000000e+00
2.850000e+01 1.050000e+01 0.000000e+00
2.800000e+01 1.050000e+01 0.000000e+00
2.750000e+01 1.050000e+01 0.000000e+00
2.700000e+01 1.050000e+01 0.000000e+00
2.650000e+01 1.050000e+01 0.000000e+00
2.600000e+01 1.050000e+01 0.000000e+00
2.550000e+01 1.050000e+01 0.000000e+00
2.500000e+01 1.050000e+01 0.000000e+00
2.450000e+01 1.050000e+01 0.000000e+00
2.400000e+01 1.050000e+01 0.000000e+00
2.350000e+01 1.050000e+01 0.000000e+00
2.300000e+01 1.050000e+01 0.000000e+00
2.250000e+01 1.050000e+01 0.000000e+00
2.200000e+01 1.050000e+01 0.000000e+00
2.150000e+01 1.050000e+01 0.000000e+00
2.100000e+01 1.050000e+01 0.000000e+00
2.050000e+01 1.050000e+01 0.000000e+00
2.000000e+01 1.050000e+01 0.000000e+00
1.950000e+01 1.050000e+01 0.000000e+00
1.900000e+01 1.050000e+01 0.000000e+00
1.850000e+01 1.050000e+01 0.000000e+00
1.800000e+01 1.050000e+01 0.000000e+00
1.750000e+01 1.050000e+01 0.000000e+00
1.700000e+01 1.050000e+01 0.000000e+00
1.650000e+01 1.050000e+01 0.000000e+00
1.600000e+01 1.050000e+01 0.000000e+00
1.550000e+01 1.050000e+01 0.000000e+00
1.500000e+01 1.050000e+01 0.000000e+00
3.000000e+01 1.000000e+01 0.000000e+00
2.950000e+01 1.000000e+01 0.000000e+00
2.900000e+01 1.000000e+01 0.000000e+00
2.850000e+01 1.000000e+01 0.000000e+00
2.800000e+01 1.000000e+01 0.000000e+00
2.750000e+01 1.000000e+01 0.000000e+00
2.700000e+01 1.000000e+01 0.000000e+00
2.650000e+01 1.000000e+01 0.000000e+00
2.600000e+01 1.000000e+01 0.000000e+00
2.550000e+01 1.000000e+01 0.000000e+00
2.500000e+01 1.000000e+01 0.000000e+00
2.450000e+01 1.000000e+01 0.000000e+00
2.400000e+01 1.000000e+01 0.000000e+00
2.350000e+01 1.000000e+01 0.000000e+00
2.300000e+01 1.000000e+01 0.000000e+00
2.250000e+01 1.000000e+01 0.000000e+00
2.200000e+01 1.000000e+01 0.000000e+00
2.150000e+01 1.000000e+01 0.000000e+00
2.100000e+01 1.000000e+01 0.000000e+00
2.050000e+01 1.000000e+01 0.000000e+00
2.000000e+01 1.000000e+01 0.000000e+00
1.950000e+01 1.000000e+01 0.000000e+00
1.900000e+01 1.000000e+01 0.000000e+00
1.850000e+01 1.000000e+01 0.000000e+00
1.800000e+01 1.000000e+01 0.000000e+00
1.750000e+01 1.000000e+01 0.000000e+00
1.700000e+01 1.000000e+01 0.000000e+00
1.650000e+01 1.000000e+01 0.000000e+00
1.600000e+01 1.000000e+01 0.000000e+00
1.550000e+01 1.000000e+01 0.000000e+00
1.500000e+01 1.000000e+01 0.000000e+00
3.000000e+01 9.500000e+00 0.000000e+00
2.950000e+01 9.500000e+00 0.000000e+00
2.900000e+01 9.500000e+00 0.000000e+00
2.850000e+01 9.500000e+00 0.000000e+00
2.800000e+01 9.500000e+00 0.000000e+00
2.750000e+01 9.500000e+00 0.000000e+00
2.700000e+01 9.500000e+00 0.000000e+00
2.650000e+01 9.500000e+00 0.000000e+00
2.600000e+01 9.500000e+00 0.000000e+00
2.550000e+01 9.500000e+00 0.000000e+00
2.500000e+01 9.500000e+00 0.000000e+00
2.450000e+01 9.500000e+00 0.000000e+00
2.400000e+01 9.500000e+00 0.000000e+00
2.350000e+01 9.500000e+00 0.000000e+00
2.300000e+01 9.500000e+00 0.000000e+00
2.250000e+01 9.500000e+00 0.000000e+00
2.200000e+01 9.500000e+00 0.000000e+00
2.150000e+01 9.500000e+00 0.000000e+00
2.100000e+01 9.500000e+00 0.000000e+00
2.050000e+01 9.500000e+00 0.000000e+00
2.000000e+01 9.500000e+00 0.000000e+00
1.950000e+01 9.500000e+00 0.000000e+00
1.900000e+01 9.500000e+00 0.000000e+00
1.850000e+01 9.500000e+00 0.000000e+00
1.800000e+01 9.500000e+00 0.000000e+00
1.750000e+01 9.500000e+00 0.000000e+00
1.700000e+01 9.500000e+00 0.000000e+00
1.650000e+01 9.500000e+00 0.000000e+00
1.600000e+01 9.500000e+00 0.000000e+00
1.550000e+01 9.500000e+00 0.000000e+00
1.500000e+01 9.500000e+00 0.000000e+00
3.000000e+01 9.000000e+00 0.000000e+00
2.950000e+01 9.000000e+00 0.000000e+00
2.900000e+01 9.000000e+00 0.000000e+00
2.850000e+01 9.000000e+00 0.000000e+00
2.800000e+01 9.000000e+00 0.000000e+00
2.750000e+01 9.000000e+00 0.000000e+00
2.700000e+01 9.000000e+00 0.000000e+00
2.650000e+01 9.000000e+00 0.000000e+00
2.600000e+01 9.000000e+00 0.000000e+00
2.550000e+01 9.000000e+00 0.000000e+00
2.500000e+01 9.000000e+00 0.000000e+00
2.450000e+01 9.000000e+00 0.000000e+00
2.400000e+01 9.000000e+00 0.000000e+00
2.350000e+01 9.000000e+00 0.000000e+00
2.300000e+01 9.000000e+00 0.000000e+00
2.250000e+01 9.000000e+00 0.000000e+00
2.200000e+01 9.000000e+00 0.000000e+00
2.150000e+01 9.000000e+00 0.000000e+00
2.100000e+01 9.000000e+00 0.000000e+00
2.050000e+01 9.000000e+00 0.000000e+00
2.000000e+01 9.000000e+00 0.000000e+00
1.950000e+01 9.000000e+00 0.000000e+00
1.900000e+01 9.000000e+00 0.000000e+00
1.850000e+01 9.000000e+00 0.000000e+00
1.800000e+01 9.000000e+00 0.000000e+00
1.750000e+01 9.000000e+00 0.000000e+00
1.700000e+01 9.000000e+00 0.000000e+00
1.650000e+01 9.000000e+00 0.000000e+00
1.600000e+01 9.000000e+00 0.000000e+00
1.550000e+01 9.000000e+00 0.000000e+00
1.500000e+01 9.000000e+00 0.000000e+00
3.000000e+01 8.500000e+00 0.000000e+00
2.950000e+01 8.500000e+00 0.000000e+00
2.900000e+01 8.500000e+00 0.000000e+00
2.850000e+01 8.500000e+00 0.000000e+00
2.800000e+01 8.500000e+00 0.000000e+00
2.750000e+01 8.500000e+00 0.000000e+00
2.700000e+01 8.500000e+00 0.000000e+00
2.650000e+01 8.500000e+00 0.000000e+00
2.600000e+01 8.500000e+00 0.000000e+00
2.550000e+01 8.500000e+00 0.000000e+00
2.500000e+01 8.500000e+00 0.000000e+00
2.450000e+01 8.500000e+00 0.000000e+00
2.400000e+01 8.500000e+00 0.000000e+00
2.350000e+01 8.500000e+00 0.000000e+00
2.300000e+01 8.500000e+00 0.000000e+00
2.250000e+01 8.500000e+00 0.000000e+00
2.200000e+01 8.500000e+00 0.000000e+00
2.150000e+01 8.500000e+00 0.000000e+00
2.100000e+01 8.500000e+00 0.000000e+00
2.050000e+01 8.500000e+00 0.000000e+00
2.000000e+01 8.500000e+00 0.000000e+00
1.950000e+01 8.500000e+00 0.000000e+00
1.900000e+01 8.500000e+00 0.000000e+00
1.850000e+01 8.500000e+00 0.000000e+00
1.800000e+01 8.500000e+00 0.000000e+00
1.750000e+01 8.500000e+00 0.000000e+00
1.700000e+01 8.500000e+00 0.000000e+00
1.650000e+01 8.500000e+00 0.000000e+00
1.600000e+01 8.500000e+00 0.000000e+00
1.550000e+01 8.500000e+00 0.000000e+00
1.500000e+01 8.500000e+00 0.000000e+00
3.000000e+01 8.000000e+00 0.000000e+00
2.950000e+01 8.000000e+00 0.000000e+00
2.900000e+01 8.000000e+00 0.000000e+00
2.850000e+01 8.000000e+00 0.000000e+00
2.800000e+01 8.000000e+00 0.000000e+00
2.750000e+01 8.000000e+00 0.000000e+00
2.700000e+01 8.000000e+00 0.000000e+00
2.650000e+01 8.000000e+00 0.000000e+00
2.600000e+01 8.000000e+00 0.000000e+00
2.550000e+01 8.000000e+00 0.000000e+00
2.500000e+01 8.000000e+00 0.000000e+00
2.450000e+01 8.000000e+00 0.000000e+00
2.400000e+01 8.000000e+00 0.000000e+00
2.350000e+01 8.000000e+00 0.000000e+00
2.300000e+01 8.000000e+00 0.000000e+00
2.250000e+01 8.000000e+00 0.000000e+00
2.200000e+01 8.000000e+00 0.000000e+00
2.150000e+01 8.000000e+00 0.000000e+00
2.100000e+01 8.000000e+00 0.000000e+00
2.050000e+01 8.000000e+00 0.000000e+00
2.000000e+01 8.000000e+00 0.000000e+00
1.950000e+01 8.000000e+00 0.000000e+00
1.900000e+01 8.000000e+00 0.000000e+00
1.850000e+01 8.000000e+00 0.000000e+00
1.800000e+01 8.000000e+00 0.000000e+00
1.750000e+01 8.000000e+00 0.000000e+00
1.700000e+01 8.000000e+00 0.000000e+00
1.650000e+01 8.000000e+00 0.000000e+00
1.600000e+01 8.000000e+00 0.000000e+00
1.550000e+01 8.000000e+00 0.000000e+00
1.500000e+01 8.000000e+00 0.000000e+00
3.000000e+01 7.500000e+00 0.000000e+00
2.950000e+01 7.500000e+00 0.000000e+00
2.900000e+01 7.500000e+00 0.000000e+00
2.850000e+01 7.500000e+00 0.000000e+00
2.800000e+01 7.500000e+00 0.000000e+00
2.750000e+01 7.500000e+00 0.000000e+00
2.700000e+01 7.500000e+00 0.000000e+00
2.650000e+01 7.500000e+00 0.000000e+00
2.600000e+01 7.500000e+00 0.000000e+00
2.550000e+01 7.500000e+00 0.000000e+00
2.500000e+01 7.500000e+00 0.000000e+00
2.450000e+01 7.500000e+00 0.000000e+00
2.400000e+01 7.500000e+00 0.000000e+00
2.350000e+01 7.500000e+00 0.000000e+00
2.300000e+01 7.500000e+00 0.000000e+00
2.250000e+01 7.500000e+00 0.000000e+00
2.200000e+01 7.500000e+00 0.000000e+00
2.150000e+01 7.500000e+00 0.000000e+00
2.100000e+01 7.500000e+00 0.000000e+00
2.050000e+01 7.500000e+00 0.000000e+00
2.000000e+01 7.500000e+00 0.000000e+00
1.950000e+01 7.500000e+00 0.000000e+00
1.900000e+01 7.500000e+00 0.000000e+00
1.850000e+01 7.500000e+00 0.000000e+00
1.800000e+01 7.500000e+00 0.000000e+00
1.750000e+01 7.500000e+00 0.000000e+00
1.700000e+01 7.500000e+00 0.000000e+00
1.650000e+01 7.500000e+00 0.000000e+00
1.600000e+01 7.500000e+00 0.000000e+00
1.550000e+01 7.500000e+00 0.000000e+00
1.500000e+01 7.500000e+00 0.000000e+00
3.000000e+01 7.000000e+00 0.000000e+00
2.950000e+01 7.000000e+00 0.000000e+00
2.900000e+01 7.000000e+00 0.000000e+00
2.850000e+01 7.000000e+00 0.000000e+00
2.800000e+01 7.000000e+00 0.000000e+00
2.750000e+01 7.000000e+00 0.000000e+00
2.700000e+01 7.000000e+00 0.000000e+00
2.650000e+01 7.000000e+00 0.000000e+00
2.600000e+01 7.000000e+00 0.000000e+00
2.550000e+01 7.000000e+00 0.000000e+00
2.500000e+01 7.000000e+00 0.000000e+00
2.450000e+01 7.000000e+00 0.000000e+00
2.400000e+01 7.000000e+00 0.000000e+00
2.350000e+01 7.000000e+00 0.000000e+00
2.300000e+01 7.000000e+00 0.000000e+00
2.250000e+01 7.000000e+00 0.000000e+00
2.200000e+01 7.000000e+00 0.000000e+00
2.150000e+01 7.000000e+00 0.000000e+00
2.100000e+01 7.000000e+00 0.000000e+00
2.050000e+01 7.000000e+00 0.000000e+00
2.000000e+01 7.000000e+00 0.000000e+00
1.950000e+01 7.000000e+00 0.000000e+00
1.900000e+01 7.000000e+00 0.000000e+00
1.850000e+01 7.000000e+00 0.000000e+00
1.800000e+01 7.000000e+00 0.000000e+00
1.750000e+01 7.000000e+00 0.000000e+00
1.700000e+01 7.000000e+00 0.000000e+00
1.650000e+01 7.000000e+00 0.000000e+00
1.600000e+01 7.000000e+00 0.000000e+00
1.550000e+01 7.000000e+00 0.000000e+00
1.500000e+01 7.000000e+00 0.000000e+00
3.000000e+01 6.500000e+00 0.000000e+00
2.950000e+01 6.500000e+00 0.000000e+00
2.900000e+01 6.500000e+00 0.000000e+00
2.850000e+01 6.500000e+00 0.000000e+00
2.800000e+01 6.500000e+00 0.000000e+00
2.750000e+01 6.500000e+00 0.000000e+00
2.700000e+01 6.500000e+00 0.000000e+00
2.650000e+01 6.500000e+00 0.000000e+00
2.600000e+01 6.500000e+00 0.000000e+00
2.550000e+01 6.500000e+00 0.000000e+00
2.500000e+01 6.500000e+00 0.000000e+00
2.450000e+01 6.500000e+00 0.000000e+00
2.400000e+01 6.500000e+00 0.000000e+00
2.350000e+01 6.500000e+00 0.000000e+00
2.300000e+01 6.500000e+00 0.000000e+00
2.250000e+01 6.500000e+00 0.000000e+00
2.200000e+01 6.500000e+00 0.000000e+00
2.150000e+01 6.500000e+00 0.000000e+00
2.100000e+01 6.500000e+00 0.000000e+00
2.050000e+01 6.500000e+00 0.000000e+00
2.000000e+01 6.500000e+00 0.000000e+00
1.950000e+01 6.500000e+00 0.000000e+00
1.900000e+01 6.500000e+00 0.000000e+00
1.850000e+01 6.500000e+00 0.000000e+00
1.800000e+01 6.500000e+00 0.000000e+00
1.750000e+01 6.500000e+00 0.000000e+00
1.700000e+01 6.500000e+00 0.000000e+00
1.650000e+01 6.500000e+00 0.000000e+00
1.600000e+01 6.500000e+00 0.000000e+00
1.550000e+01 6.500000e+00 0.000000e+00
1.500000e+01 6.500000e+00 0.000000e+00
3.000000e+01 6.000000e+00 0.000000e+00
2.950000e+01 6.000000e+00 0.000000e+00
2.900000e+01 6.000000e+00 0.000000e+00
2.850000e+01 6.000000e+00 0.000000e+00
2.800000e+01 6.000000e+00 0.000000e+00
2.750000e+01 6.000000e+00 0.000000e+00
2.700000e+01 6.000000e+00 0.000000e+00
2.650000e+01 6.000000e+00 0.000000e+00
2.600000e+01 6.000000e+00 0.000000e+00
2.550000e+01 6.000000e+00 0.000000e+00
2.500000e+01 6.000000e+00 0.000000e+00
2.450000e+01 6.000000e+00 0.000000e+00
2.400000e+01 6.000000e+00 0.000000e+00
2.350000e+01 6.000000e+00 0.000000e+00
2.300000e+01 6.000000e+00 0.000000e+00
2.250000e+01 6.000000e+00 0.000000e+00
2.200000e+01 6.000000e+00 0.000000e+00
2.150000e+01 6.000000e+00 0.000000e+00
2.100000e+01 6.000000e+00 0.000000e+00
2.050000e+01 6.000000e+00 0.000000e+00
2.000000e+01 6.000000e+00 0.000000e+00
1.950000e+01 6.000000e+00 0.000000e+00
1.900000e+01 6.000000e+00 0.000000e+00
1.850000e+01 6.000000e+00 0.000000e+00
1.800000e+01 6.000000e+00 0.000000e+00
1.750000e+01 6.000000e+00 0.000000e+00
1.700000e+01 6.000000e+00 0.000000e+00
1.650000e+01 6.000000e+00 0.000000e+00
1.600000e+01 6.000000e+00 0.000000e+00
1.550000e+01 6.000000e+00 0.000000e+00
1.500000e+01 6.000000e+00 0.000000e+00
3.000000e+01 5.500000e+00 0.000000e+00
2.950000e+01 5.500000e+00 0.000000e+00
2.900000e+01 5.500000e+00 0.000000e+00
2.850000e+01 5.500000e+00 0.000000e+00
2.800000e+01 5.500000e+00 0.000000e+00
2.750000e+01 5.500000e+00 0.000000e+00
2.700000e+01 5.500000e+00 0.000000e+00
2.650000e+01 5.500000e+00 0.000000e+00
2.600000e+01 5.500000e+00 0.000000e+00
2.550000e+01 5.500000e+00 0.000000e+00
2.500000e+01 5.500000e+00 0.000000e+00
2.450000e+01 5.500000e+00 0.000000e+00
2.400000e+01 5.500000e+00 0.000000e+00
2.350000e+01 5.500000e+00 0.000000e+00
2.300000e+01 5.500000e+00 0.000000e+00
2.250000e+01 5.500000e+00 0.000000e+00
2.200000e+01 5.500000e+00 0.000000e+00
2.150000e+01 5.500000e+00 0.000000e+00
2.100000e+01 5.500000e+00 0.000000e+00
2.050000e+01 5.500000e+00 0.000000e+00
2.000000e+01 5.500000e+00 0.000000e+00
1.950000e+01 5.500000e+00 0.000000e+00
1.900000e+01 5.500000e+00 0.000000e+00
1.850000e+01 5.500000e+00 0.000000e+00
1.800000e+01 5.500000e+00 0.000000e+00
1.750000e+01 5.500000e+00 0.000000e+00
1.700000e+01 5.500000e+00 0.000000e+00
1.650000e+01 5.500000e+00 0.000000e+00
1.600000e+01 5.500000e+00 0.000000e+00
1.550000e+01 5.500000e+00 0.000000e+00
1.500000e+01 5.500000e+00 0.000000e+00
3.000000e+01 5.000000e+00 0.000000e+00
2.950000e+01 5.000000e+00 0.000000e+00
2.900000e+01 5.000000e+00 0.000000e+00
2.850000e+01 5.000000e+00 0.000000e+00
2.800000e+01 5.000000e+00 0.000000e+00
2.750000e+01 5.000000e+00 0.000000e+00
2.700000e+01 5.000000e+00 0.000000e+00
2.650000e+01 5.000000e+00 0.000000e+00
2.600000e+01 5.000000e+00 0.000000e+00
2.550000e+01 5.000000e+00 0.000000e+00
2.500000e+01 5.000000e+00 0.000000e+00
2.450000e+01 5.000000e+00 0.000000e+00
2.400000e+01 5.000000e+00 0.000000e+00
2.350000e+01 5.000000e+00 0.000000e+00
2.300000e+01 5.000000e+00 0.000000e+00
2.250000e+01 5.000000e+00 0.000000e+00
2.200000e+01 5.000000e+00 0.000000e+00
2.150000e+01 5.000000e+00 0.000000e+00
2.100000e+01 5.000000e+00 0.000000e+00
2.050000e+01 5.000000e+00 0.000000e+00
2.000000e+01 5.000000e+00 0.000000e+00
1.950000e+01 5.000000e+00 0.000000e+00
1.900000e+01 5.000000e+00 0.000000e+00
1.850000e+01 5.000000e+00 0.000000e+00
1.800000e+01 5.000000e+00 0.000000e+00
1.750000e+01 5.000000e+00 0.000000e+00
1.700000e+01 5.000000e+00 0.000000e+00
1.650000e+01 5.000000e+00 0.000000e+00
1.600000e+01 5.000000e+00 0.000000e+00
1.550000e+01 5.000000e+00 0.000000e+00
1.500000e+01 5.000000e+00 0.000000e+00
3.000000e+01 4.500000e+00 0.000000e+00
2.950000e+01 4.500000e+00 0.000000e+00
2.900000e+01 4.500000e+00 0.000000e+00
2.850000e+01 4.500000e+00 0.000000e+00
2.800000e+01 4.500000e+00 0.000000e+00
2.750000e+01 4.500000e+00 0.000000e+00
2.700000e+01 4.500000e+00 0.000000e+00
2.650000e+01 4.500000e+00 0.000000e+00
2.600000e+01 4.500000e+00 0.000000e+00
2.550000e+01 4.500000e+00 0.000000e+00
2.500000e+01 4.500000e+00 0.000000e+00
2.450000e+01 4.500000e+00 0.000000e+00
2.400000e+01 4.500000e+00 0.000000e+00
2.350000e+01 4.500000e+00 0.000000e+00
2.300000e+01 4.500000e+00 0.000000e+00
2.250000e+01 4.500000e+00 0.000000e+00
2.200000e+01 4.500000e+00 0.000000e+00
2.150000e+01 4.500000e+00 0.000000e+00
2.100000e+01 4.500000e+00 0.000000e+00
2.050000e+01 4.500000e+00 0.000000e+00
2.000000e+01 4.500000e+00 0.000000e+00
1.950000e+01 4.500000e+00 0.000000e+00
1.900000e+01 4.500000e+00 0.000000e+00
1.850000e+01 4.500000e+00 0.000000e+00
1.800000e+01 4.500000e+00 0.000000e+00
1.750000e+01 4.500000e+00 0.000000e+00
1.700000e+01 4.500000e+00 0.000000e+00
1.650000e+01 4.500000e+00 0.000000e+00
1.600000e+01 4.500000e+00 0.000000e+00
1.550000e+01 4.500000e+00 0.000000e+00
1.500000e+01 4.500000e+00 0.000000e+00
3.000000e+01 4.000000e+00 0.000000e+00
2.950000e+01 4.000000e+00 0.000000e+00
2.900000e+01 4.000000e+00 0.000000e+00
2.850000e+01 4.000000e+00 0.000000e+00
2.800000e+01 4.000000e+00 0.000000e+00
2.750000e+01 4.000000e+00 0.000000e+00
2.700000e+01 4.000000e+00 0.000000e+00
2.650000e+01 4.000000e+00 0.000000e+00
2.600000e+01 4.000000e+00 0.000000e+00
2.550000e+01 4.000000e+00 0.000000e+00
2.500000e+01 4.000000e+00 0.000000e+00
2.450000e+01 4.000000e+00 0.000000e+00
2.400000e+01 4.000000e+00 0.000000e+00
2.350000e+01 4.000000e+00 0.000000e+00
2.300000e+01 4.000000e+00 0.000000e+00
2.250000e+01 4.000000e+00 0.000000e+00
2.200000e+01 4.000000e+00 0.000000e+00
2.150000e+01 4.000000e+00 0.000000e+00
2.100000e+01 4.000000e+00 0.000000e+00
2.050000e+01 4.000000e+00 0.000000e+00
2.000000e+01 4.000000e+00 0.000000e+00
1.950000e+01 4.000000e+00 0.000000e+00
1.900000e+01 4.000000e+00 0.000000e+00
1.850000e+01 4.000000e+00 0.000000e+00
1.800000e+01 4.000000e+00 0.000000e+00
1.750000e+01 4.000000e+00 0.000000e+00
1.700000e+01 4.000000e+00 0.000000e+00
1.650000e+01 4.000000e+00 0.000000e+00
1.600000e+01 4.000000e+00 0.000000e+00
1.550000e+01 4.000000e+00 0.000000e+00
1.500000e+01 4.000000e+00 0.000000e+00
3.000000e+01 3.500000e+00 0.000000e+00
2.950000e+01 3.500000e+00 0.000000e+00
2.900000e+01 3.500000e+00 0.000000e+00
2.850000e+01 3.500000e+00 0.000000e+00
2.800000e+01 3.500000e+00 0.000000e+00
2.750000e+01 3.500000e+00 0.000000e+00
2.700000e+01 3.500000e+00 0.000000e+00
2.650000e+01 3.500000e+00 0.000000e+00
2.600000e+01 3.500000e+00 0.000000e+00
2.550000e+01 3.500000e+00 0.000000e+00
2.500000e+01 3.500000e+00 0.000000e+00
2.450000e+01 3.500000e+00 0.000000e+00
2.400000e+01 3.500000e+00 0.000000e+00
2.350000e+01 3.500000e+00 0.000000e+00
2.300000e+01 3.500000e+00 0.000000e+00
2.250000e+01 3.500000e+00 0.000000e+00
2.200000e+01 3.500000e+00 0.000000e+00
2.150000e+01 3.500000e+00 0.000000e+00
2.100000e+01 3.500000e+00 0.000000e+00
2.050000e+01 3.500000e+00 0.000000e+00
2.000000e+01 3.500000e+00 0.000000e+00
1.950000e+01 3.500000e+00 0.000000e+00
1.900000e+01 3.500000e+00 0.000000e+00
1.850000e+01 3.500000e+00 0.000000e+00
1.800000e+01 3.500000e+00 0.000000e+00
1.750000e+01 3.500000e+00 0.000000e+00
1.700000e+01 3.500000e+00 0.000000e+00
1.650000e+01 3.500000e+00 0.000000e+00
1.600000e+01 3.500000e+00 0.000000e+00
1.550000e+01 3.500000e+00 0.000000e+00
1.500000e+01 3.500000e+00 0.000000e+00
3.000000e+01 3.000000e+00 0.000000e+00
2.950000e+01 3.000000e+00 0.000000e+00
2.900000e+01 3.000000e+00 0.000000e+00
2.850000e+01 3.000000e+00 0.000000e+00
2.800000e+01 3.000000e+00 0.000000e+00
2.750000e+01 3.000000e+00 0.000000e+00
2.700000e+01 3.000000e+00 0.000000e+00
2.650000e+01 3.000000e+00 0.000000e+00
2.600000e+01 3.000000e+00 0.000000e+00
2.550000e+01 3.000000e+00 0.000000e+00
2.500000e+01 3.000000e+00 0.000000e+00
2.450000e+01 3.000000e+00 0.000000e+00
2.400000e+01 3.000000e+00 0.000000e+00
2.350000e+01 3.000000e+00 0.000000e+00
2.300000e+01 3.000000e+00 0.000000e+00
2.250000e+01 3.000000e+00 0.000000e+00
2.200000e+01 3.000000e+00 0.000000e+00
2.150000e+01 3.000000e+00 0.000000e+00
2.100000e+01 3.000000e+00 0.000000e+00
2.050000e+01 3.000000e+00 0.000000e+00
2.000000e+01 3.000000e+00 0.000000e+00
1.950000e+01 3.000000e+00 0.000000e+00
1.900000e+01 3.000000e+00 0.000000e+00
1.850000e+01 3.000000e+00 0.000000e+00
1.800000e+01 3.000000e+00 0.000000e+00
1.750000e+01 3.000000e+00 0.000000e+00
1.700000e+01 3.000000e+00 0.000000e+00
1.650000e+01 3.000000e+00 0.000000e+00
1.600000e+01 3.000000e+00 0.000000e+00
1.550000e+01 3.000000e+00 0.000000e+00
1.500000e+01 3.000000e+00 0.000000e+00
3.000000e+01 2.500000e+00 0.000000e+00
2.950000e+01 2.500000e+00 0.000000e+00
2.900000e+01 2.500000e+00 0.000000e+00
2.850000e+01 2.500000e+00 0.000000e+00
2.800000e+01 2.500000e+00 0.000000e+00
2.750000e+01 2.500000e+00 0.000000e+00
2.700000e+01 2.500000e+00 0.000000e+00
2.650000e+01 2.500000e+00 0.000000e+00
2.600000e+01 2.500000e+00 0.000000e+00
2.550000e+01 2.500000e+00 0.000000e+00
2.500000e+01 2.500000e+00 0.000000e+00
2.450000e+01 2.500000e+00 0.000000e+00
2.400000e+01 2.500000e+00 0.000000e+00
2.350000e+01 2.500000e+00 0.000000e+00
2.300000e+01 2.500000e+00 0.000000e+00
2.250000e+01 2.500000e+00 0.000000e+00
2.200000e+01 2.500000e+00 0.000000e+00
2.150000e+01 2.500000e+00 0.000000e+00
2.100000e+01 2.500000e+00 0.000000e+00
2.050000e+01 2.500000e+00 0.000000e+00
2.000000e+01 2.500000e+00 0.000000e+00
1.950000e+01 2.500000e+00 0.000000e+00
1.900000e+01 2.500000e+00 0.000000e+00
1.850000e+01 2.500000e+00 0.000000e+00
1.800000e+01 2.500000e+00 0.000000e+00
1.750000e+01 2.500000e+00 0.000000e+00
1.700000e+01 2.500000e+00 0.000000e+00
1.650000e+01 2.500000e+00 0.000000e+00
1.600000e+01 2.500000e+00 0.000000e+00
1.550000e+01 2.500000e+00 0.000000e+00
1.500000e+01 2.500000e+00 0.000000e+00
3.000000e+01 2.000000e+00 0.000000e+00
2.950000e+01 2.000000e+00 0.000000e+00
2.900000e+01 2.000000e+00 0.000000e+00
2.850000e+01 2.000000e+00 0.000000e+00
2.800000e+01 2.000000e+00 0.000000e+00
2.750000e+01 2.000000e+00 0.000000e+00
2.700000e+01 2.000000e+00 0.000000e+00
2.650000e+01 2.000000e+00 0.000000e+00
2.600000e+01 2.000000e+00 0.000000e+00
2.550000e+01 2.000000e+00 0.000000e+00
2.500000e+01 2.000000e+00 0.000000e+00
2.450000e+01 2.000000e+00 0.000000e+00
2.400000e+01 2.000000e+00 0.000000e+00
2.350000e+01 2.000000e+00 0.000000e+00
2.300000e+01 2.000000e+00 0.000000e+00
2.250000e+01 2.000000e+00 0.000000e+00
2.200000e+01 2.000000e+00 0.000000e+00
2.150000e+01 2.000000e+00 0.000000e+00
2.100000e+01 2.000000e+00 0.000000e+00
2.050000e+01 2.000000e+00 0.000000e+00
2.000000e+01 2.000000e+00 0.000000e+00
1.950000e+01 2.000000e+00 0.000000e+00
1.900000e+01 2.000000e+00 0.000000e+00
1.850000e+01 2.000000e+00 0.000000e+00
1.800000e+01 2.000000e+00 0.000000e+00
1.750000e+01 2.000000e+00 0.000000e+00
1.700000e+01 2.000000e+00 0.000000e+00
1.650000e+01 2.000000e+00 0.000000e+00
1.600000e+01 2.000000e+00 0.000000e+00
1.550000e+01 2.000000e+00 0.000000e+00
1.500000e+01 2.000000e+00 0.000000e+00
3.000000e+01 1.500000e+00 0.000000e+00
2.950000e+01 1.500000e+00 0.000000e+00
2.900000e+01 1.500000e+00 0.000000e+00
2.850000e+01 1.500000e+00 0.000000e+00
2.800000e+01 1.500000e+00 0.000000e+00
2.750000e+01 1.500000e+00 0.000000e+00
2.700000e+01 1.500000e+00 0.000000e+00
2.650000e+01 1.500000e+00 0.000000e+00
2.600000e+01 1.500000e+00 0.000000e+00
2.550000e+01 1.500000e+00 0.000000e+00
2.500000e+01 1.500000e+00 0.000000e+00
2.450000e+01 1.500000e+00 0.000000e+00
2.400000e+01 1.500000e+00 0.000000e+00
2.350000e+01 1.500000e+00 0.000000e+00
2.300000e+01 1.500000e+00 0.000000e+00
2.250000e+01 1.500000e+00 0.000000e+00
2.200000e+01 1.500000e+00 0.000000e+00
2.150000e+01 1.500000e+00 0.000000e+00
2.100000e+01 1.500000e+00 0.000000e+00
2.050000e+01 1.500000e+00 0.000000e+00
2.000000e+01 1.500000e+00 0.000000e+00
1.950000e+01 1.500000e+00 0.000000e+00
1.900000e+01 1.500000e+00 0.000000e+00
1.850000e+01 1.500000e+00 0.000000e+00
1.800000e+01 1.500000e+00 0.000000e+00
1.750000e+01 1.500000e+00 0.000000e+00
1.700000e+01 1.500000e+00 0.000000e+00
1.650000e+01 1.500000e+00 0.000000e+00
1.600000e+01 1.500000e+00 0.000000e+00
1.550000e+01 1.500000e+00 0.000000e+00
1.500000e+01 1.500000e+00 0.000000e+00
3.000000e+01 1.000000e+00 0.000000e+00
2.950000e+01 1.000000e+00 0.000000e+00
2.900000e+01 1.000000e+00 0.000000e+00
2.850000e+01 1.000000e+00 0.000000e+00
2.800000e+01 1.000000e+00 0.000000e+00
2.750000e+01 1.000000e+00 0.000000e+00
2.700000e+01 1.000000e+00 0.000000e+00
2.650000e+01 1.000000e+00 0.000000e+00
2.600000e+01 1.000000e+00 0.000000e+00
2.550000e+01 1.000000e+00 0.000000e+00
2.500000e+01 1.000000e+00 0.000000e+00
2.450000e+01 1.000000e+00 0.000000e+00
2.400000e+01 1.000000e+00 0.000000e+00
2.350000e+01 1.000000e+00 0.000000e+00
2.300000e+01 1.000000e+00 0.000000e+00
2.250000e+01 1.000000e+00 0.000000e+00
2.200000e+01 1.000000e+00 0.000000e+00
2.150000e+01 1.000000e+00 0.000000e+00
2.100000e+01 1.000000e+00 0.000000e+00
2.050000e+01 1.000000e+00 0.000000e+00
2.000000e+01 1.000000e+00 0.000000e+00
1.950000e+01 1.000000e+00 0.000000e+00
1.900000e+01 1.000000e+00 0.000000e+00
1.850000e+01 1.000000e+00 0.000000e+00
1.800000e+01 1.000000e+00 0.000000e+00
1.750000e+01 1.000000e+00 0.000000e+00
1.700000e+01 1.000000e+00 0.000000e+00
1.650000e+01 1.000000e+00 0.000000e+00
1.600000e+01 1.000000e+00 0.000000e+00
1.550000e+01 1.000000e+00 0.000000e+00
1.500000e+01 1.000000e+00 0.000000e+00
3.000000e+01 5.000000e-01 0.000000e+00
2.950000e+01 5.000000e-01 0.000000e+00
2.900000e+01 5.000000e-01 0.000000e+00
2.850000e+01 5.000000e-01 0.000000e+00
2.800000e+01 5.000000e-01 0.000000e+00
2.750000e+01 5.000000e-01 0.000000e+00
2.700000e+01 5.000000e-01 0.000000e+00
2.650000e+01 5.000000e-01 0.000000e+00
2.600000e+01 5.000000e-01 0.000000e+00
2.550000e+01 5.000000e-01 0.000000e+00
2.500000e+01 5.000000e-01 0.000000e+00
2.450000e+01 5.000000e-01 0.000000e+00
2.400000e+01 5.000000e-01 0.000000e+00
2.350000e+01 5.000000e-01 0.000000e+00
2.300000e+01 5.000000e-01 0.000000e+00
2.250000e+01 5.000000e-01 0.000000e+00
2.200000e+01 5.000000e-01 0.000000e+00
2.150000e+01 5.000000e-01 0.000000e+00
2.100000e+01 5.000000e-01 0.000000e+00
2.050000e+01 5.000000e-01 0.000000e+00
2.000000e+01 5.000000e-01 0.000000e+00
1.950000e+01 5.000000e-01 0.000000e+00
1.900000e+01 5.000000e-01 0.000000e+00
1.850000e+01 5.000000e-01 0.000000e+00
1.800000e+01 5.000000e-01 0.000000e+00
1.750000e+01 5.000000e-01 0.000000e+00
1.700000e+01 5.000000e-01 0.000000e+00
1.650000e+01 5.000000e-01 0.000000e+00
1.600000e+01 5.000000e-01 0.000000e+00
1.550000e+01 5.000000e-01 0.000000e+00
1.500000e+01 5.000000e-01 0.000000e+00
3.000000e+01 0.000000e+00 0.000000e+00
2.950000e+01 0.000000e+00 0.000000e+00
2.900000e+01 0.000000e+00 0.000000e+00
2.850000e+01 0.000000e+00 0.000000e+00
2.800000e+01 0.000000e+00 0.000000e+00
2.750000e+01 0.000000e+00 0.000000e+00
2.700000e+01 0.000000e+00 0.000000e+00
2.650000e+01 0.000000e+00 0.000000e+00
2.600000e+01 0.000000e+00 0.000000e+00
2.550000e+01 0.000000e+00 0.000000e+00
2.500000e+01 0.000000e+00 0.000000e+00
2.450000e+01 0.000000e+00 0.000000e+00
2.400000e+01 0.000000e+00 0.000000e+00
2.350000e+01 0.000000e+00 0.000000e+00
2.300000e+01 0.000000e+00 0.000000e+00
2.250000e+01 0.000000e+00 0.000000e+00
2.200000e+01 0.000000e+00 0.000000e+00
2.150000e+01 0.000000e+00 0.000000e+00
2.100000e+01 0.000000e+00 0.000000e+00
2.050000e+01 0.000000e+00 0.000000e+00
2.000000e+01 0.000000e+00 0.000000e+00
1.950000e+01 0.000000e+00 0.000000e+00
1.900000e+01 0.000000e+00 0.000000e+00
1.850000e+01 0.000000e+00 0.000000e+00
1.800000e+01 0.000000e+00 0.000000e+00
1.750000e+01 0.000000e+00 0.000000e+00
1.700000e+01 0.000000e+00 0.000000e+00
1.650000e+01 0.000000e+00 0.000000e+00
1.600000e+01 0.000000e+00 0.000000e+00
1.550000e+01 0.000000e+00 0.000000e+00
1.500000e+01 0.000000e+00 0.000000e+00
3.000000e+01 -5.000000e-01 0.000000e+00
2.950000e+01 -5.000000e-01 0.000000e+00
2.900000e+01 -5.000000e-01 0.000000e+00
2.850000e+01 -5.000000e-01 0.000000e+00
2.800000e+01 -5.000000e-01 0.000000e+00
2.750000e+01 -5.000000e-01 0.000000e+00
2.700000e+01 -5.000000e-01 0.000000e+00
2.650000e+01 -5.000000e-01 0.000000e+00
2.600000e+01 -5.000000e-01 0.000000e+00
2.550000e+01 -5.000000e-01 0.000000e+00
2.500000e+01 -5.000000e-01 0.000000e+00
2.450000e+01 -5.000000e-01 0.000000e+00
2.400000e+01 -5.000000e-01 0.000000e+00
2.350000e+01 -5.000000e-01 0.000000e+00
2.300000e+01 -5.000000e-01 0.000000e+00
2.250000e+01 -5.000000e-01 0.000000e+00
2.200000e+01 -5.000000e-01 0.000000e+00
2.150000e+01 -5.000000e-01 0.000000e+00
2.100000e+01 -5.000000e-01 0.000000e+00
2.050000e+01 -5.000000e-01 0.000000e+00
2.000000e+01 -5.000000e-01 0.000000e+00
1.950000e+01 -5.000000e-01 0.000000e+00
1.900000e+01 -5.000000e-01 0.000000e+00
1.850000e+01 -5.000000e-01 0.000000e+00
1.800000e+01 -5.000000e-01 0.000000e+00
1.750000e+01 -5.000000e-01 0.000000e+00
1.700000e+01 -5.000000e-01 0.000000e+00
1.650000e+01 -5.000000e-01 0.000000e+00
1.600000e+01 -5.000000e-01 0.000000e+00
1.550000e+01 -5.000000e-01 0.000000e+00
1.500000e+01 -5.000000e-01 0.000000e+00
3.000000e+01 -1.000000e+00 0.000000e+00
2.950000e+01 -1.000000e+00 0.000000e+00
2.900000e+01 -1.000000e+00 0.000000e+00
2.850000e+01 -1.000000e+00 0.000000e+00
2.800000e+01 -1.000000e+00 0.000000e+00
2.750000e+01 -1.000000e+00 0.000000e+00
2.700000e+01 -1.000000e+00 0.000000e+00
2.650000e+01 -1.000000e+00 0.000000e+00
2.600000e+01 -1.000000e+00 0.000000e+00
2.550000e+01 -1.000000e+00 0.000000e+00
2.500000e+01 -1.000000e+00 0.000000e+00
2.450000e+01 -1.000000e+00 0.000000e+00
2.400000e+01 -1.000000e+00 0.000000e+00
2.350000e+01 -1.000000e+00 0.000000e+00
2.300000e+01 -1.000000e+00 0.000000e+00
2.250000e+01 -1.000000e+00 0.000000e+00
2.200000e+01 -1.000000e+00 0.000000e+00
2.150000e+01 -1.000000e+00 0.000000e+00
2.100000e+01 -1.000000e+00 0.000000e+00
2.050000e+01 -1.000000e+00 0.000000e+00
2.000000e+01 -1.000000e+00 0.000000e+00
1.950000e+01 -1.000000e+00 0.000000e+00
1.900000e+01 -1.000000e+00 0.000000e+00
1.850000e+01 -1.000000e+00 0.000000e+00
1.800000e+01 -1.000000e+00 0.000000e+00
1.750000e+01 -1.000000e+00 0.000000e+00
1.700000e+01 -1.000000e+00 0.000000e+00
1.650000e+01 -1.000000e+00 0.000000e+00
1.600000e+01 -1.000000e+00 0.000000e+00
1.550000e+01 -1.000000e+00 0.000000e+00
1.500000e+01 -1.000000e+00 0.000000e+00
3.000000e+01 -1.500000e+00 0.000000e+00
2.950000e+01 -1.500000e+00 0.000000e+00
2.900000e+01 -1.500000e+00 0.000000e+00
2.850000e+01 -1.500000e+00 0.000000e+00
2.800000e+01 -1.500000e+00 0.000000e+00
2.750000e+01 -1.500000e+00 0.000000e+00
2.700000e+01 -1.500000e+00 0.000000e+00
2.650000e+01 -1.500000e+00 0.000000e+00
2.600000e+01 -1.500000e+00 0.000000e+00
2.550000e+01 -1.500000e+00 0.000000e+00
2.500000e+01 -1.500000e+00 0.000000e+00
2.450000e+01 -1.500000e+00 0.000000e+00
2.400000e+01 -1.500000e+00 0.000000e+00
2.350000e+01 -1.500000e+00 0.000000e+00
2.300000e+01 -1.500000e+00 0.000000e+00
2.250000e+01 -1.500000e+00 0.000000e+00
2.200000e+01 -1.500000e+00 0.000000e+00
2.150000e+01 -1.500000e+00 0.000000e+00
2.100000e+01 -1.500000e+00 0.000000e+00
2.050000e+01 -1.500000e+00 0.000000e+00
2.000000e+01 -1.500000e+00 0.000000e+00
1.950000e+01 -1.500000e+00 0.000000e+00
1.900000e+01 -1.500000e+00 0.000000e+00
1.850000e+01 -1.500000e+00 0.000000e+00
1.800000e+01 -1.500000e+00 0.000000e+00
1.750000e+01 -1.500000e+00 0.000000e+00
1.700000e+01 -1.500000e+00 0.000000e+00
1.650000e+01 -1.500000e+00 0.000000e+00
1.600000e+01 -1.500000e+00 0.000000e+00
1.550000e+01 -1.500000e+00 0.000000e+00
1.500000e+01 -1.500000e+00 0.000000e+00
3.000000e+01 -2.000000e+00 0.000000e+00
2.950000e+01 -2.000000e+00 0.000000e+00
2.900000e+01 -2.000000e+00 0.000000e+00
2.850000e+01 -2.000000e+00 0.000000e+00
2.800000e+01 -2.000000e+00 0.000000e+00
2.750000e+01 -2.000000e+00 0.000000e+00
2.700000e+01 -2.000000e+00 0.000000e+00
2.650000e+01 -2.000000e+00 0.000000e+00
2.600000e+01 -2.000000e+00 0.000000e+00
2.550000e+01 -2.000000e+00 0.000000e+00
2.500000e+01 -2.000000e+00 0.000000e+00
2.450000e+01 -2.000000e+00 0.000000e+00
2.400000e+01 -2.000000e+00 0.000000e+00
2.350000e+01 -2.000000e+00 0.000000e+00
2.300000e+01 -2.000000e+00 0.000000e+00
2.250000e+01 -2.000000e+00 0.000000e+00
2.200000e+01 -2.000000e+00 0.000000e+00
2.150000e+01 -2.000000e+00 0.000000e+00
2.100000e+01 -2.000000e+00 0.000000e+00
2.050000e+01 -2.000000e+00 0.000000e+00
2.000000e+01 -2.000000e+00 0.000000e+00
1.950000e+01 -2.000000e+00 0.000000e+00
1.900000e+01 -2.000000e+00 0.000000e+00
1.850000e+01 -2.000000e+00 0.000000e+00
1.800000e+01 -2.000000e+00 0.000000e+00
1.750000e+01 -2.000000e+00 0.000000e+00
1.700000e+01 -2.000000e+00 0.000000e+00
1.650000e+01 -2.000000e+00 0.000000e+00
1.600000e+01 -2.000000e+00 0.000000e+00
1.550000e+01 -2.000000e+00 0.000000e+00
1.500000e+01 -2.000000e+00 0.000000e+00
3.000000e+01 -2.500000e+00 0.000000e+00
2.950000e+01 -2.500000e+00 0.000000e+00
2.900000e+01 -2.500000e+00 0.000000e+00
2.850000e+01 -2.500000e+00 0.000000e+00
2.800000e+01 -2.500000e+00 0.000000e+00
2.750000e+01 -2.500000e+00 0.000000e+00
2.700000e+01 -2.500000e+00 0.000000e+00
2.650000e+01 -2.500000e+00 0.000000e+00
2.600000e+01 -2.500000e+00 0.000000e+00
2.550000e+01 -2.500000e+00 0.000000e+00
2.500000e+01 -2.500000e+00 0.000000e+00
2.450000e+01 -2.500000e+00 0.000000e+00
2.400000e+01 -2.500000e+00 0.000000e+00
2.350000e+01 -2.500000e+00 0.000000e+00
2.300000e+01 -2.500000e+00 0.000000e+00
2.250000e+01 -2.500000e+00 0.000000e+00
2.200000e+01 -2.500000e+00 0.000000e+00
2.150000e+01 -2.500000e+00 0.000000e+00
2.100000e+01 -2.500000e+00 0.000000e+00
2.050000e+01 -2.500000e+00 0.000000e+00
2.000000e+01 -2.500000e+00 0.000000e+00
1.950000e+01 -2.500000e+00 0.000000e+00
1.900000e+01 -2.500000e+00 0.000000e+00
1.850000e+01 -2.500000e+00 0.000000e+00
1.800000e+01 -2.500000e+00 0.000000e+00
1.750000e+01 -2.500000e+00 0.000000e+00
1.700000e+01 -2.500000e+00 0.000000e+00
1.650000e+01 -2.500000e+00 0.000000e+00
1.600000e+01 -2.500000e+00 0.000000e+00
1.550000e+01 -2.500000e+00 0.000000e+00
1.500000e+01 -2.500000e+00 0.000000e+00
3.000000e+01 -3.000000e+00 0.000000e+00
2.950000e+01 -3.000000e+00 0.000000e+00
2.900000e+01 -3.000000e+00 0.000000e+00
2.850000e+01 -3.000000e+00 0.000000e+00
2.800000e+01 -3.000000e+00 0.000000e+00
2.750000e+01 -3.000000e+00 0.000000e+00
2.700000e+01 -3.000000e+00 0.000000e+00
2.650000e+01 -3.000000e+00 0.000000e+00
2.600000e+01 -3.000000e+00 0.000000e+00
2.550000e+01 -3.000000e+00 0.000000e+00
2.500000e+01 -3.000000e+00 0.000000e+00
2.450000e+01 -3.000000e+00 0.000000e+00
2.400000e+01 -3.000000e+00 0.000000e+00
2.350000e+01 -3.000000e+00 0.000000e+00
2.300000e+01 -3.000000e+00 0.000000e+00
2.250000e+01 -3.000000e+00 0.000000e+00
2.200000e+01 -3.000000e+00 0.000000e+00
2.150000e+01 -3.000000e+00 0.000000e+00
2.100000e+01 -3.000000e+00 0.000000e+00
2.050000e+01 -3.000000e+00 0.000000e+00
2.000000e+01 -3.000000e+00 0.000000e+00
1.950000e+01 -3.000000e+00 0.000000e+00
1.900000e+01 -3.000000e+00 0.000000e+00
1.850000e+01 -3.000000e+00 0.000000e+00
1.800000e+01 -3.000000e+00 0.000000e+00
1.750000e+01 -3.000000e+00 0.000000e+00
1.700000e+01 -3.000000e+00 0.000000e+00
1.650000e+01 -3.000000e+00 0.000000e+00
1.600000e+01 -3.000000e+00 0.000000e+00
1.550000e+01 -3.000000e+00 0.000000e+00
1.500000e+01 -3.000000e+00 0.000000e+00
3.000000e+01 -3.500000e+00 0.000000e+00
2.950000e+01 -3.500000e+00 0.000000e+00
2.900000e+01 -3.500000e+00 0.000000e+00
2.850000e+01 -3.500000e+00 0.000000e+00
2.800000e+01 -3.500000e+00 0.000000e+00
2.750000e+01 -3.500000e+00 0.000000e+00
2.700000e+01 -3.500000e+00 0.000000e+00
2.650000e+01 -3.500000e+00 0.000000e+00
2.600000e+01 -3.500000e+00 0.000000e+00
2.550000e+01 -3.500000e+00 0.000000e+00
2.500000e+01 -3.500000e+00 0.000000e+00
2.450000e+01 -3.500000e+00 0.000000e+00
2.400000e+01 -3.500000e+00 0.000000e+00
2.350000e+01 -3.500000e+00 0.000000e+00
2.300000e+01 -3.500000e+00 0.000000e+00
2.250000e+01 -3.500000e+00 0.000000e+00
2.200000e+01 -3.500000e+00 0.000000e+00
2.150000e+01 -3.500000e+00 0.000000e+00
2.100000e+01 -3.500000e+00 0.000000e+00
2.050000e+01 -3.500000e+00 0.000000e+00
2.000000e+01 -3.500000e+00 0.000000e+00
1.950000e+01 -3.500000e+00 0.000000e+00
1.900000e+01 -3.500000e+00 0.000000e+00
1.850000e+01 -3.500000e+00 0.000000e+00
1.800000e+01 -3.500000e+00 0.000000e+00
1.750000e+01 -3.500000e+00 0.000000e+00
1.700000e+01 -3.500000e+00 0.000000e+00
1.650000e+01 -3.500000e+00 0.000000e+00
1.600000e+01 -3.500000e+00 0.000000e+00
1.550000e+01 -3.500000e+00 0.000000e+00
1.500000e+01 -3.500000e+00 0.000000e+00
3.000000e+01 -4.000000e+00 0.000000e+00
2.950000e+01 -4.000000e+00 0.000000e+00
2.900000e+01 -4.000000e+00 0.000000e+00
2.850000e+01 -4.000000e+00 0.000000e+00
2.800000e+01 -4.000000e+00 0.000000e+00
2.750000e+01 -4.000000e+00 0.000000e+00
2.700000e+01 -4.000000e+00 0.000000e+00
2.650000e+01 -4.000000e+00 0.000000e+00
2.600000e+01 -4.000000e+00 0.000000e+00
2.550000e+01 -4.000000e+00 0.000000e+00
2.500000e+01 -4.000000e+00 0.000000e+00
2.450000e+01 -4.000000e+00 0.000000e+00
2.400000e+01 -4.000000e+00 0.000000e+00
2.350000e+01 -4.000000e+00 0.000000e+00
2.300000e+01 -4.000000e+00 0.000000e+00
2.250000e+01 -4.000000e+00 0.000000e+00
2.200000e+01 -4.000000e+00 0.000000e+00
2.150000e+01 -4.000000e+00 0.000000e+00
2.100000e+01 -4.000000e+00 0.000000e+00
2.050000e+01 -4.000000e+00 0.000000e+00
2.000000e+01 -4.000000e+00 0.000000e+00
1.950000e+01 -4.000000e+00 0.000000e+00
1.900000e+01 -4.000000e+00 0.000000e+00
1.850000e+01 -4.000000e+00 0.000000e+00
1.800000e+01 -4.000000e+00 0.000000e+00
1.750000e+01 -4.000000e+00 0.000000e+00
1.700000e+01 -4.000000e+00 0.000000e+00
1.650000e+01 -4.000000e+00 0.000000e+00
1.600000e+01 -4.000000e+00 0.000000e+00
1.550000e+01 -4.000000e+00 0.000000e+00
1.500000e+01 -4.000000e+00 0.000000e+00
3.000000e+01 -4.500000e+00 0.000000e+00
2.950000e+01 -4.500000e+00 0.000000e+00
2.900000e+01 -4.500000e+00 0.000000e+00
2.850000e+01 -4.500000e+00 0.000000e+00
2.800000e+01 -4.500000e+00 0.000000e+00
2.750000e+01 -4.500000e+00 0.000000e+00
2.700000e+01 -4.500000e+00 0.000000e+00
2.650000e+01 -4.500000e+00 0.000000e+00
2.600000e+01 -4.500000e+00 0.000000e+00
2.550000e+01 -4.500000e+00 0.000000e+00
2.500000e+01 -4.500000e+00 0.000000e+00
2.450000e+01 -4.500000e+00 0.000000e+00
2.400000e+01 -4.500000e+00 0.000000e+00
2.350000e+01 -4.500000e+00 0.000000e+00
2.300000e+01 -4.500000e+00 0.000000e+00
2.250000e+01 -4.500000e+00 0.000000e+00
2.200000e+01 -4.500000e+00 0.000000e+00
2.150000e+01 -4.500000e+00 0.000000e+00
2.100000e+01 -4.500000e+00 0.000000e+00
2.050000e+01 -4.500000e+00 0.000000e+00
2.000000e+01 -4.500000e+00 0.000000e+00
1.950000e+01 -4.500000e+00 0.000000e+00
1.900000e+01 -4.500000e+00 0.000000e+00
1.850000e+01 -4.500000e+00 0.000000e+00
1.800000e+01 -4.500000e+00 0.000000e+00
1.750000e+01 -4.500000e+00 0.000000e+00
1.700000e+01 -4.500000e+00 0.000000e+00
1.650000e+01 -4.500000e+00 0.000000e+00
1.600000e+01 -4.500000e+00 0.000000e+00
1.550000e+01 -4.500000e+00 0.000000e+00
1.500000e+01 -4.500000e+00 0.000000e+00
3.000000e+01 -5.000000e+00 0.000000e+00
2.950000e+01 -5.000000e+00 0.000000e+00
2.900000e+01 -5.000000e+00 0.000000e+00
2.850000e+01 -5.000000e+00 0.000000e+00
2.800000e+01 -5.000000e+00 0.000000e+00
2.750000e+01 -5.000000e+00 0.000000e+00
2.700000e+01 -5.000000e+00 0.000000e+00
2.650000e+01 -5.000000e+00 0.000000e+00
2.600000e+01 -5.000000e+00 0.000000e+00
2.550000e+01 -5.000000e+00 0.000000e+00
2.500000e+01 -5.000000e+00 0.000000e+00
2.450000e+01 -5.000000e+00 0.000000e+00
2.400000e+01 -5.000000e+00 0.000000e+00
2.350000e+01 -5.000000e+00 0.000000e+00
2.300000e+01 -5.000000e+00 0.000000e+00
2.250000e+01 -5.000000e+00 0.000000e+00
2.200000e+01 -5.000000e+00 0.000000e+00
2.150000e+01 -5.000000e+00 0.000000e+00
2.100000e+01 -5.000000e+00 0.000000e+00
2.050000e+01 -5.000000e+00 0.000000e+00
2.000000e+01 -5.000000e+00 0.000000e+00
1.950000e+01 -5.000000e+00 0.000000e+00
1.900000e+01 -5.000000e+00 0.000000e+00
1.850000e+01 -5.000000e+00 0.000000e+00
1.800000e+01 -5.000000e+00 0.000000e+00
1.750000e+01 -5.000000e+00 0.000000e+00
1.700000e+01 -5.000000e+00 0.000000e+00
1.650000e+01 -5.000000e+00 0.000000e+00
1.600000e+01 -5.000000e+00 0.000000e+00
1.550000e+01 -5.000000e+00 0.000000e+00
1.500000e+01 -5.000000e+00 0.000000e+00
3.000000e+01 -5.500000e+00 0.000000e+00
2.950000e+01 -5.500000e+00 0.000000e+00
2.900000e+01 -5.500000e+00 0.000000e+00
2.850000e+01 -5.500000e+00 0.000000e+00
2.800000e+01 -5.500000e+00 0.000000e+00
2.750000e+01 -5.500000e+00 0.000000e+00
2.700000e+01 -5.500000e+00 0.000000e+00
2.650000e+01 -5.500000e+00 0.000000e+00
2.600000e+01 -5.500000e+00 0.000000e+00
2.550000e+01 -5.500000e+00 0.000000e+00
2.500000e+01 -5.500000e+00 0.000000e+00
2.450000e+01 -5.500000e+00 0.000000e+00
2.400000e+01 -5.500000e+00 0.000000e+00
2.350000e+01 -5.500000e+00 0.000000e+00
2.300000e+01 -5.500000e+00 0.000000e+00
2.250000e+01 -5.500000e+00 0.000000e+00
2.200000e+01 -5.500000e+00 0.000000e+00
2.150000e+01 -5.500000e+00 0.000000e+00
2.100000e+01 -5.500000e+00 0.000000e+00
2.050000e+01 -5.500000e+00 0.000000e+00
2.000000e+01 -5.500000e+00 0.000000e+00
1.950000e+01 -5.500000e+00 0.000000e+00
1.900000e+01 -5.500000e+00 0.000000e+00
1.850000e+01 -5.500000e+00 0.000000e+00
1.800000e+01 -5.500000e+00 0.000000e+00
1.750000e+01 -5.500000e+00 0.000000e+00
1.700000e+01 -5.500000e+00 0.000000e+00
1.650000e+01 -5.500000e+00 0.000000e+00
1.600000e+01 -5.500000e+00 0.000000e+00
1.550000e+01 -5.500000e+00 0.000000e+00
1.500000e+01 -5.500000e+00 0.000000e+00
3.000000e+01 -6.000000e+00 0.000000e+00
2.950000e+01 -6.000000e+00 0.000000e+00
2.900000e+01 -6.000000e+00 0.000000e+00
2.850000e+01 -6.000000e+00 0.000000e+00
2.800000e+01 -6.000000e+00 0.000000e+00
2.750000e+01 -6.000000e+00 0.000000e+00
2.700000e+01 -6.000000e+00 0.000000e+00
2.650000e+01 -6.000000e+00 0.000000e+00
2.600000e+01 -6.000000e+00 0.000000e+00
2.550000e+01 -6.000000e+00 0.000000e+00
2.500000e+01 -6.000000e+00 0.000000e+00
2.450000e+01 -6.000000e+00 0.000000e+00
2.400000e+01 -6.000000e+00 0.000000e+00
2.350000e+01 -6.000000e+00 0.000000e+00
2.300000e+01 -6.000000e+00 0.000000e+00
2.250000e+01 -6.000000e+00 0.000000e+00
2.200000e+01 -6.000000e+00 0.000000e+00
2.150000e+01 -6.000000e+00 0.000000e+00
2.100000e+01 -6.000000e+00 0.000000e+00
2.050000e+01 -6.000000e+00 0.000000e+00
2.000000e+01 -6.000000e+00 0.000000e+00
1.950000e+01 -6.000000e+00 0.000000e+00
1.900000e+01 -6.000000e+00 0.000000e+00
1.850000e+01 -6.000000e+00 0.000000e+00
1.800000e+01 -6.000000e+00 0.000000e+00
1.750000e+01 -6.000000e+00 0.000000e+00
1.700000e+01 -6.000000e+00 0.000000e+00
1.650000e+01 -6.000000e+00 0.000000e+00
1.600000e+01 -6.000000e+00 0.000000e+00
1.550000e+01 -6.000000e+00 0.000000e+00
1.500000e+01 -6.000000e+00 0.000000e+00
3.000000e+01 -6.500000e+00 0.000000e+00
2.950000e+01 -6.500000e+00 0.000000e+00
2.900000e+01 -6.500000e+00 0.000000e+00
2.850000e+01 -6.500000e+00 0.000000e+00
2.800000e+01 -6.500000e+00 0.000000e+00
2.750000e+01 -6.500000e+00 0.000000e+00
2.700000e+01 -6.500000e+00 0.000000e+00
2.650000e+01 -6.500000e+00 0.000000e+00
2.600000e+01 -6.500000e+00 0.000000e+00
2.550000e+01 -6.500000e+00 0.000000e+00
2.500000e+01 -6.500000e+00 0.000000e+00
2.450000e+01 -6.500000e+00 0.000000e+00
2.400000e+01 -6.500000e+00 0.000000e+00
2.350000e+01 -6.500000e+00 0.000000e+00
2.300000e+01 -6.500000e+00 0.000000e+00
2.250000e+01 -6.500000e+00 0.000000e+00
2.200000e+01 -6.500000e+00 0.000000e+00
2.150000e+01 -6.500000e+00 0.000000e+00
2.100000e+01 -6.500000e+00 0.000000e+00
2.050000e+01 -6.500000e+00 0.000000e+00
2.000000e+01 -6.500000e+00 0.000000e+00
1.950000e+01 -6.500000e+00 0.000000e+00
1.900000e+01 -6.500000e+00 0.000000e+00
1.850000e+01 -6.500000e+00 0.000000e+00
1.800000e+01 -6.500000e+00 0.000000e+00
1.750000e+01 -6.500000e+00 0.000000e+00
1.700000e+01 -6.500000e+00 0.000000e+00
1.650000e+01 -6.500000e+00 0.000000e+00
1.600000e+01 -6.500000e+00 0.000000e+00
1.550000e+01 -6.500000e+00 0.000000e+00
1.500000e+01 -6.500000e+00 0.000000e+00
3.000000e+01 -7.000000e+00 0.000000e+00
2.950000e+01 -7.000000e+00 0.000000e+00
2.900000e+01 -7.000000e+00 0.000000e+00
2.850000e+01 -7.000000e+00 0.000000e+00
2.800000e+01 -7.000000e+00 0.000000e+00
2.750000e+01 -7.000000e+00 0.000000e+00
2.700000e+01 -7.000000e+00 0.000000e+00
2.650000e+01 -7.000000e+00 0.000000e+00
2.600000e+01 -7.000000e+00 0.000000e+00
2.550000e+01 -7.000000e+00 0.000000e+00
2.500000e+01 -7.000000e+00 0.000000e+00
2.450000e+01 -7.000000e+00 0.000000e+00
2.400000e+01 -7.000000e+00 0.000000e+00
2.350000e+01 -7.000000e+00 0.000000e+00
2.300000e+01 -7.000000e+00 0.000000e+00
2.250000e+01 -7.000000e+00 0.000000e+00
2.200000e+01 -7.000000e+00 0.000000e+00
2.150000e+01 -7.000000e+00 0.000000e+00
2.100000e+01 -7.000000e+00 0.000000e+00
2.050000e+01 -7.000000e+00 0.000000e+00
2.000000e+01 -7.000000e+00 0.000000e+00
1.950000e+01 -7.000000e+00 0.000000e+00
1.900000e+01 -7.000000e+00 0.000000e+00
1.850000e+01 -7.000000e+00 0.000000e+00
1.800000e+01 -7.000000e+00 0.000000e+00
1.750000e+01 -7.000000e+00 0.000000e+00
1.700000e+01 -7.000000e+00 0.000000e+00
1.650000e+01 -7.000000e+00 0.000000e+00
1.600000e+01 -7.000000e+00 0.000000e+00
1.550000e+01 -7.000000e+00 0.000000e+00
1.500000e+01 -7.000000e+00 0.000000e+00
3.000000e+01 -7.500000e+00 0.000000e+00
2.950000e+01 -7.500000e+00 0.000000e+00
2.900000e+01 -7.500000e+00 0.000000e+00
2.850000e+01 -7.500000e+00 0.000000e+00
2.800000e+01 -7.500000e+00 0.000000e+00
2.750000e+01 -7.500000e+00 0.000000e+00
2.700000e+01 -7.500000e+00 0.000000e+00
2.650000e+01 -7.500000e+00 0.000000e+00
2.600000e+01 -7.500000e+00 0.000000e+00
2.550000e+01 -7.500000e+00 0.000000e+00
2.500000e+01 -7.500000e+00 0.000000e+00
2.450000e+01 -7.500000e+00 0.000000e+00
2.400000e+01 -7.500000e+00 0.000000e+00
2.350000e+01 -7.500000e+00 0.000000e+00
2.300000e+01 -7.500000e+00 0.000000e+00
2.250000e+01 -7.500000e+00 0.000000e+00
2.200000e+01 -7.500000e+00 0.000000e+00
2.150000e+01 -7.500000e+00 0.000000e+00
2.100000e+01 -7.500000e+00 0.000000e+00
2.050000e+01 -7.500000e+00 0.000000e+00
2.000000e+01 -7.500000e+00 0.000000e+00
1.950000e+01 -7.500000e+00 0.000000e+00
1.900000e+01 -7.500000e+00 0.000000e+00
1.850000e+01 -7.500000e+00 0.000000e+00
1.800000e+01 -7.500000e+00 0.000000e+00
1.750000e+01 -7.500000e+00 0.000000e+00
1.700000e+01 -7.500000e+00 0.000000e+00
1.650000e+01 -7.500000e+00 0.000000e+00
1.600000e+01 -7.500000e+00 0.000000e+00
1.550000e+01 -7.500000e+00 0.000000e+00
1.500000e+01 -7.500000e+00 0.000000e+00
3.000000e+01 -8.000000e+00 0.000000e+00
2.950000e+01 -8.000000e+00 0.000000e+00
2.900000e+01 -8.000000e+00 0.000000e+00
2.850000e+01 -8.000000e+00 0.000000e+00
2.800000e+01 -8.000000e+00 0.000000e+00
2.750000e+01 -8.000000e+00 0.000000e+00
2.700000e+01 -8.000000e+00 0.000000e+00
2.650000e+01 -8.000000e+00 0.000000e+00
2.600000e+01 -8.000000e+00 0.000000e+00
2.550000e+01 -8.000000e+00 0.000000e+00
2.500000e+01 -8.000000e+00 0.000000e+00
2.450000e+01 -8.000000e+00 0.000000e+00
2.400000e+01 -8.000000e+00 0.000000e+00
2.350000e+01 -8.000000e+00 0.000000e+00
2.300000e+01 -8.000000e+00 0.000000e+00
2.250000e+01 -8.000000e+00 0.000000e+00
2.200000e+01 -8.000000e+00 0.000000e+00
2.150000e+01 -8.000000e+00 0.000000e+00
2.100000e+01 -8.000000e+00 0.000000e+00
2.050000e+01 -8.000000e+00 0.000000e+00
2.000000e+01 -8.000000e+00 0.000000e+00
1.950000e+01 -8.000000e+00 0.000000e+00
1.900000e+01 -8.000000e+00 0.000000e+00
1.850000e+01 -8.000000e+00 0.000000e+00
1.800000e+01 -8.000000e+00 0.000000e+00
1.750000e+01 -8.000000e+00 0.000000e+00
1.700000e+01 -8.000000e+00 0.000000e+00
1.650000e+01 -8.000000e+00 0.000000e+00
1.600000e+01 -8.000000e+00 0.000000e+00
1.550000e+01 -8.000000e+00 0.000000e+00
1.500000e+01 -8.000000e+00 0.000000e+00
3.000000e+01 -8.500000e+00 0.000000e+00
2.950000e+01 -8.500000e+00 0.000000e+00
2.900000e+01 -8.500000e+00 0.000000e+00
2.850000e+01 -8.500000e+00 0.000000e+00
2.800000e+01 -8.500000e+00 0.000000e+00
2.750000e+01 -8.500000e+00 0.000000e+00
2.700000e+01 -8.500000e+00 0.000000e+00
2.650000e+01 -8.500000e+00 0.000000e+00
2.600000e+01 -8.500000e+00 0.000000e+00
2.550000e+01 -8.500000e+00 0.000000e+00
2.500000e+01 -8.500000e+00 0.000000e+00
2.450000e+01 -8.500000e+00 0.000000e+00
2.400000e+01 -8.500000e+00 0.000000e+00
2.350000e+01 -8.500000e+00 0.000000e+00
2.300000e+01 -8.500000e+00 0.000000e+00
2.250000e+01 -8.500000e+00 0.000000e+00
2.200000e+01 -8.500000e+00 0.000000e+00
2.150000e+01 -8.500000e+00 0.000000e+00
2.100000e+01 -8.500000e+00 0.000000e+00
2.050000e+01 -8.500000e+00 0.000000e+00
2.000000e+01 -8.500000e+00 0.000000e+00
1.950000e+01 -8.500000e+00 0.000000e+00
1.900000e+01 -8.500000e+00 0.000000e+00
1.850000e+01 -8.500000e+00 0.000000e+00
1.800000e+01 -8.500000e+00 0.000000e+00
1.750000e+01 -8.500000e+00 0.000000e+00
1.700000e+01 -8.500000e+00 0.000000e+00
1.650000e+01 -8.500000e+00 0.000000e+00
1.600000e+01 -8.500000e+00 0.000000e+00
1.550000e+01 -8.500000e+00 0.000000e+00
1.500000e+01 -8.500000e+00 0.000000e+00
3.000000e+01 -9.000000e+00 0.000000e+00
2.950000e+01 -9.000000e+00 0.000000e+00
2.900000e+01 -9.000000e+00 0.000000e+00
2.850000e+01 -9.000000e+00 0.000000e+00
2.800000e+01 -9.000000e+00 0.000000e+00
2.750000e+01 -9.000000e+00 0.000000e+00
2.700000e+01 -9.000000e+00 0.000000e+00
2.650000e+01 -9.000000e+00 0.000000e+00
2.600000e+01 -9.000000e+00 0.000000e+00
2.550000e+01 -9.000000e+00 0.000000e+00
2.500000e+01 -9.000000e+00 0.000000e+00
2.450000e+01 -9.000000e+00 0.000000e+00
2.400000e+01 -9.000000e+00 0.000000e+00
2.350000e+01 -9.000000e+00 0.000000e+00
2.300000e+01 -9.000000e+00 0.000000e+00
2.250000e+01 -9.000000e+00 0.000000e+00
2.200000e+01 -9.000000e+00 0.000000e+00
2.150000e+01 -9.000000e+00 0.000000e+00
2.100000e+01 -9.000000e+00 0.000000e+00
2.050000e+01 -9.000000e+00 0.000000e+00
2.000000e+01 -9.000000e+00 0.000000e+00
1.950000e+01 -9.000000e+00 0.000000e+00
1.900000e+01 -9.000000e+00 0.000000e+00
1.850000e+01 -9.000000e+00 0.000000e+00
1.800000e+01 -9.000000e+00 0.000000e+00
1.750000e+01 -9.000000e+00 0.000000e+00
1.700000e+01 -9.000000e+00 0.000000e+00
1.650000e+01 -9.000000e+00 0.000000e+00
1.600000e+01 -9.000000e+00 0.000000e+00
1.550000e+01 -9.000000e+00 0.000000e+00
1.500000e+01 -9.000000e+00 0.000000e+00
3.000000e+01 -9.500000e+00 0.000000e+00
2.950000e+01 -9.500000e+00 0.000000e+00
2.900000e+01 -9.500000e+00 0.000000e+00
2.850000e+01 -9.500000e+00 0.000000e+00
2.800000e+01 -9.500000e+00 0.000000e+00
2.750000e+01 -9.500000e+00 0.000000e+00
2.700000e+01 -9.500000e+00 0.000000e+00
2.650000e+01 -9.500000e+00 0.000000e+00
2.600000e+01 -9.500000e+00 0.000000e+00
2.550000e+01 -9.500000e+00 0.000000e+00
2.500000e+01 -9.500000e+00 0.000000e+00
2.450000e+01 -9.500000e+00 0.000000e+00
2.400000e+01 -9.500000e+00 0.000000e+00
2.350000e+01 -9.500000e+00 0.000000e+00
2.300000e+01 -9.500000e+00 0.000000e+00
2.250000e+01 -9.500000e+00 0.000000e+00
2.200000e+01 -9.500000e+00 0.000000e+00
2.150000e+01 -9.500000e+00 0.000000e+00
2.100000e+01 -9.500000e+00 0.000000e+00
2.050000e+01 -9.500000e+00 0.000000e+00
2.000000e+01 -9.500000e+00 0.000000e+00
1.950000e+01 -9.500000e+00 0.000000e+00
1.900000e+01 -9.500000e+00 0.000000e+00
1.850000e+01 -9.500000e+00 0.000000e+00
1.800000e+01 -9.500000e+00 0.000000e+00
1.750000e+01 -9.500000e+00 0.000000e+00
1.700000e+01 -9.500000e+00 0.000000e+00
1.650000e+01 -9.500000e+00 0.000000e+00
1.600000e+01 -9.500000e+00 0.000000e+00
1.550000e+01 -9.500000e+00 0.000000e+00
1.500000e+01 -9.500000e+00 0.000000e+00
3.000000e+01 -1.000000e+01 0.000000e+00
2.950000e+01 -1.000000e+01 0.000000e+00
2.900000e+01 -1.000000e+01 0.000000e+00
2.850000e+01 -1.000000e+01 0.000000e+00
2.800000e+01 -1.000000e+01 0.000000e+00
2.750000e+01 -1.000000e+01 0.000000e+00
2.700000e+01 -1.000000e+01 0.000000e+00
2.650000e+01 -1.000000e+01 0.000000e+00
2.600000e+01 -1.000000e+01 0.000000e+00
2.550000e+01 -1.000000e+01 0.000000e+00
2.500000e+01 -1.000000e+01 0.000000e+00
2.450000e+01 -1.000000e+01 0.000000e+00
2.400000e+01 -1.000000e+01 0.000000e+00
2.350000e+01 -1.000000e+01 0.000000e+00
2.300000e+01 -1.000000e+01 0.000000e+00
2.250000e+01 -1.000000e+01 0.000000e+00
2.200000e+01 -1.000000e+01 0.000000e+00
2.150000e+01 -1.000000e+01 0.000000e+00
2.100000e+01 -1.000000e+01 0.000000e+00
2.050000e+01 -1.000000e+01 0.000000e+00
2.000000e+01 -1.000000e+01 0.000000e+00
1.950000e+01 -1.000000e+01 0.000000e+00
1.900000e+01 -1.000000e+01 0.000000e+00
1.850000e+01 -1.000000e+01 0.000000e+00
1.800000e+01 -1.000000e+01 0.000000e+00
1.750000e+01 -1.000000e+01 0.000000e+00
1.700000e+01 -1.000000e+01 0.000000e+00
1.650000e+01 -1.000000e+01 0.000000e+00
1.600000e+01 -1.000000e+01 0.000000e+00
1.550000e+01 -1.000000e+01 0.000000e+00
1.500000e+01 -1.000000e+01 0.000000e+00
3.000000e+01 -1.050000e+01 0.000000e+00
2.950000e+01 -1.050000e+01 0.000000e+00
2.900000e+01 -1.050000e+01 0.000000e+00
2.850000e+01 -1.050000e+01 0.000000e+00
2.800000e+01 -1.050000e+01 0.000000e+00
2.750000e+01 -1.050000e+01 0.000000e+00
2.700000e+01 -1.050000e+01 0.000000e+00
2.650000e+01 -1.050000e+01 0.000000e+00
2.600000e+01 -1.050000e+01 0.000000e+00
2.550000e+01 -1.050000e+01 0.000000e+00
2.500000e+01 -1.050000e+01 0.000000e+00
2.450000e+01 -1.050000e+01 0.000000e+00
2.400000e+01 -1.050000e+01 0.000000e+00
2.350000e+01 -1.050000e+01 0.000000e+00
2.300000e+01 -1.050000e+01 0.000000e+00
2.250000e+01 -1.050000e+01 0.000000e+00
2.200000e+01 -1.050000e+01 0.000000e+00
2.150000e+01 -1.050000e+01 0.000000e+00
2.100000e+01 -1.050000e+01 0.000000e+00
2.050000e+01 -1.050000e+01 0.000000e+00
2.000000e+01 -1.050000e+01 0.000000e+00
1.950000e+01 -1.050000e+01 0.000000e+00
1.900000e+01 -1.050000e+01 0.000000e+00
1.850000e+01 -1.050000e+01 0.000000e+00
1.800000e+01 -1.050000e+01 0.000000e+00
1.750000e+01 -1.050000e+01 0.000000e+00
1.700000e+01 -1.050000e+01 0.000000e+00
1.650000e+01 -1.050000e+01 0.000000e+00
1.600000e+01 -1.050000e+01 0.000000e+00
1.550000e+01 -1.050000e+01 0.000000e+00
1.500000e+01 -1.050000e+01 0.000000e+00
3.000000e+01 -1.100000e+01 0.000000e+00
2.950000e+01 -1.100000e+01 0.000000e+00
2.900000e+01 -1.100000e+01 0.000000e+00
2.850000e+01 -1.100000e+01 0.000000e+00
2.800000e+01 -1.100000e+01 0.000000e+00
2.750000e+01 -1.100000e+01 0.000000e+00
2.700000e+01 -1.100000e+01 0.000000e+00
2.650000e+01 -1.100000e+01 0.000000e+00
2.600000e+01 -1.100000e+01 0.000000e+00
2.550000e+01 -1.100000e+01 0.000000e+00
2.500000e+01 -1.100000e+01 0.000000e+00
2.450000e+01 -1.100000e+01 0.000000e+00
2.400000e+01 -1.100000e+01 0.000000e+00
2.350000e+01 -1.100000e+01 0.000000e+00
2.300000e+01 -1.100000e+01 0.000000e+00
2.250000e+01 -1.100000e+01 0.000000e+00
2.200000e+01 -1.100000e+01 0.000000e+00
2.150000e+01 -1.100000e+01 0.000000e+00
2.100000e+01 -1.100000e+01 0.000000e+00
2.050000e+01 -1.100000e+01 0.000000e+00
2.000000e+01 -1.100000e+01 0.000000e+00
1.950000e+01 -1.100000e+01 0.000000e+00
1.900000e+01 -1.100000e+01 0.000000e+00
1.850000e+01 -1.100000e+01 0.000000e+00
1.800000e+01 -1.100000e+01 0.000000e+00
1.750000e+01 -1.100000e+01 0.000000e+00
1.700000e+01 -1.100000e+01 0.000000e+00
1.650000e+01 -1.100000e+01 0.000000e+00
1.600000e+01 -1.100000e+01 0.000000e+00
1.550000e+01 -1.100000e+01 0.000000e+00
1.500000e+01 -1.100000e+01 0.000000e+00
3.000000e+01 -1.150000e+01 0.000000e+00
2.950000e+01 -1.150000e+01 0.000000e+00
2.900000e+01 -1.150000e+01 0.000000e+00
2.850000e+01 -1.150000e+01 0.000000e+00
2.800000e+01 -1.150000e+01 0.000000e+00
2.750000e+01 -1.150000e+01 0.000000e+00
2.700000e+01 -1.150000e+01 0.000000e+00
2.650000e+01 -1.150000e+01 0.000000e+00
2.600000e+01 -1.150000e+01 0.000000e+00
2.550000e+01 -1.150000e+01 0.000000e+00
2.500000e+01 -1.150000e+01 0.000000e+00
2.450000e+01 -1.150000e+01 0.000000e+00
2.400000e+01 -1.150000e+01 0.000000e+00
2.350000e+01 -1.150000e+01 0.000000e+00
2.300000e+01 -1.150000e+01 0.000000e+00
2.250000e+01 -1.150000e+01 0.000000e+00
2.200000e+01 -1.150000e+01 0.000000e+00
2.150000e+01 -1.150000e+01 0.000000e+00
2.100000e+01 -1.150000e+01 0.000000e+00
2.050000e+01 -1.150000e+01 0.000000e+00
2.000000e+01 -1.150000e+01 0.000000e+00
1.950000e+01 -1.150000e+01 0.000000e+00
1.900000e+01 -1.150000e+01 0.000000e+00
1.850000e+01 -1.150000e+01 0.000000e+00
1.800000e+01 -1.150000e+01 0.000000e+00
1.750000e+01 -1.150000e+01 0.000000e+00
1.700000e+01 -1.150000e+01 0.000000e+00
1.650000e+01 -1.150000e+01 0.000000e+00
1.600000e+01 -1.150000e+01 0.000000e+00
1.550000e+01 -1.150000e+01 0.000000e+00
1.500000e+01 -1.150000e+01 0.000000e+00
3.000000e+01 -1.200000e+01 0.000000e+00
2.950000e+01 -1.200000e+01 0.000000e+00
2.900000e+01 -1.200000e+01 0.000000e+00
2.850000e+01 -1.200000e+01 0.000000e+00
2.800000e+01 -1.200000e+01 0.000000e+00
2.750000e+01 -1.200000e+01 0.000000e+00
2.700000e+01 -1.200000e+01 0.000000e+00
2.650000e+01 -1.200000e+01 0.000000e+00
2.600000e+01 -1.200000e+01 0.000000e+00
2.550000e+01 -1.200000e+01 0.000000e+00
2.500000e+01 -1.200000e+01 0.000000e+00
2.450000e+01 -1.200000e+01 0.000000e+00
2.400000e+01 -1.200000e+01 0.000000e+00
2.350000e+01 -1.200000e+01 0.000000e+00
2.300000e+01 -1.200000e+01 0.000000e+00
2.250000e+01 -1.200000e+01 0.000000e+00
2.200000e+01 -1.200000e+01 0.000000e+00
2.150000e+01 -1.200000e+01 0.000000e+00
2.100000e+01 -1.200000e+01 0.000000e+00
2.050000e+01 -1.200000e+01 0.000000e+00
2.000000e+01 -1.200000e+01 0.000000e+00
1.950000e+01 -1.200000e+01 0.000000e+00
1.900000e+01 -1.200000e+01 0.000000e+00
1.850000e+01 -1.200000e+01 0.000000e+00
1.800000e+01 -1.200000e+01 0.000000e+00
1.750000e+01 -1.200000e+01 0.000000e+00
1.700000e+01 -1.200000e+01 0.000000e+00
1.650000e+01 -1.200000e+01 0.000000e+00
1.600000e+01 -1.200000e+01 0.000000e+00
1.550000e+01 -1.200000e+01 0.000000e+00
1.500000e+01 -1.200000e+01 0.000000e+00
3.000000e+01 -1.250000e+01 0.000000e+00
2.950000e+01 -1.250000e+01 0.000000e+00
2.900000e+01 -1.250000e+01 0.000000e+00
2.850000e+01 -1.250000e+01 0.000000e+00
2.800000e+01 -1.250000e+01 0.000000e+00
2.750000e+01 -1.250000e+01 0.000000e+00
2.700000e+01 -1.250000e+01 0.000000e+00
2.650000e+01 -1.250000e+01 0.000000e+00
2.600000e+01 -1.250000e+01 0.000000e+00
2.550000e+01 -1.250000e+01 0.000000e+00
2.500000e+01 -1.250000e+01 0.000000e+00
2.450000e+01 -1.250000e+01 0.000000e+00
2.400000e+01 -1.250000e+01 0.000000e+00
2.350000e+01 -1.250000e+01 0.000000e+00
2.300000e+01 -1.250000e+01 0.000000e+00
2.250000e+01 -1.250000e+01 0.000000e+00
2.200000e+01 -1.250000e+01 0.000000e+00
2.150000e+01 -1.250000e+01 0.000000e+00
2.100000e+01 -1.250000e+01 0.000000e+00
2.050000e+01 -1.250000e+01 0.000000e+00
2.000000e+01 -1.250000e+01 0.000000e+00
1.950000e+01 -1.250000e+01 0.000000e+00
1.900000e+01 -1.250000e+01 0.000000e+00
1.850000e+01 -1.250000e+01 0.000000e+00
1.800000e+01 -1.250000e+01 0.000000e+00
1.750000e+01 -1.250000e+01 0.000000e+00
1.700000e+01 -1.250000e+01 0.000000e+00
1.650000e+01 -1.250000e+01 0.000000e+00
1.600000e+01 -1.250000e+01 0.000000e+00
1.550000e+01 -1.250000e+01 0.000000e+00
1.500000e+01 -1.250000e+01 0.000000e+00
3.000000e+01 -1.300000e+01 0.000000e+00
2.950000e+01 -1.300000e+01 0.000000e+00
2.900000e+01 -1.300000e+01 0.000000e+00
2.850000e+01 -1.300000e+01 0.000000e+00
2.800000e+01 -1.300000e+01 0.000000e+00
2.750000e+01 -1.300000e+01 0.000000e+00
2.700000e+01 -1.300000e+01 0.000000e+00
2.650000e+01 -1.300000e+01 0.000000e+00
2.600000e+01 -1.300000e+01 0.000000e+00
2.550000e+01 -1.300000e+01 0.000000e+00
2.500000e+01 -1.300000e+01 0.000000e+00
2.450000e+01 -1.300000e+01 0.000000e+00
2.400000e+01 -1.300000e+01 0.000000e+00
2.350000e+01 -1.300000e+01 0.000000e+00
2.300000e+01 -1.300000e+01 0.000000e+00
2.250000e+01 -1.300000e+01 0.000000e+00
2.200000e+01 -1.300000e+01 0.000000e+00
2.150000e+01 -1.300000e+01 0.000000e+00
2.100000e+01 -1.300000e+01 0.000000e+00
2.050000e+01 -1.300000e+01 0.000000e+00
2.000000e+01 -1.300000e+01 0.000000e+00
1.950000e+01 -1.300000e+01 0.000000e+00
1.900000e+01 -1.300000e+01 0.000000e+00
1.850000e+01 -1.300000e+01 0.000000e+00
1.800000e+01 -1.300000e+01 0.000000e+00
1.750000e+01 -1.300000e+01 0.000000e+00
1.700000e+01 -1.300000e+01 0.000000e+00
1.650000e+01 -1.300000e+01 0.000000e+00
1.600000e+01 -1.300000e+01 0.000000e+00
1.550000e+01 -1.300000e+01 0.000000e+00
1.500000e+01 -1.300000e+01 0.000000e+00
3.000000e+01 -1.350000e+01 0.000000e+00
2.950000e+01 -1.350000e+01 0.000000e+00
2.900000e+01 -1.350000e+01 0.000000e+00
2.850000e+01 -1.350000e+01 0.000000e+00
2.800000e+01 -1.350000e+01 0.000000e+00
2.750000e+01 -1.350000e+01 0.000000e+00
2.700000e+01 -1.350000e+01 0.000000e+00
2.650000e+01 -1.350000e+01 0.000000e+00
2.600000e+01 -1.350000e+01 0.000000e+00
2.550000e+01 -1.350000e+01 0.000000e+00
2.500000e+01 -1.350000e+01 0.000000e+00
2.450000e+01 -1.350000e+01 0.000000e+00
2.400000e+01 -1.350000e+01 0.000000e+00
2.350000e+01 -1.350000e+01 0.000000e+00
2.300000e+01 -1.350000e+01 0.000000e+00
2.250000e+01 -1.350000e+01 0.000000e+00
2.200000e+01 -1.350000e+01 0.000000e+00
2.150000e+01 -1.350000e+01 0.000000e+00
2.100000e+01 -1.350000e+01 0.000000e+00
2.050000e+01 -1.350000e+01 0.000000e+00
2.000000e+01 -1.350000e+01 0.000000e+00
1.950000e+01 -1.350000e+01 0.000000e+00
1.900000e+01 -1.350000e+01 0.000000e+00
1.850000e+01 -1.350000e+01 0.000000e+00
1.800000e+01 -1.350000e+01 0.000000e+00
1.750000e+01 -1.350000e+01 0.000000e+00
1.700000e+01 -1.350000e+01 0.000000e+00
1.650000e+01 -1.350000e+01 0.000000e+00
1.600000e+01 -1.350000e+01 0.000000e+00
1.550000e+01 -1.350000e+01 0.000000e+00
1.500000e+01 -1.350000e+01 0.000000e+00
3.000000e+01 -1.400000e+01 0.000000e+00
2.950000e+01 -1.400000e+01 0.000000e+00
2.900000e+01 -1.400000e+01 0.000000e+00
2.850000e+01 -1.400000e+01 0.000000e+00
2.800000e+01 -1.400000e+01 0.000000e+00
2.750000e+01 -1.400000e+01 0.000000e+00
2.700000e+01 -1.400000e+01 0.000000e+00
2.650000e+01 -1.400000e+01 0.000000e+00
2.600000e+01 -1.400000e+01 0.000000e+00
2.550000e+01 -1.400000e+01 0.000000e+00
2.500000e+01 -1.400000e+01 0.000000e+00
2.450000e+01 -1.400000e+01 0.000000e+00
2.400000e+01 -1.400000e+01 0.000000e+00
2.350000e+01 -1.400000e+01 0.000000e+00
2.300000e+01 -1.400000e+01 0.000000e+00
2.250000e+01 -1.400000e+01 0.000000e+00
2.200000e+01 -1.400000e+01 0.000000e+00
2.150000e+01 -1.400000e+01 0.000000e+00
2.100000e+01 -1.400000e+01 0.000000e+00
2.050000e+01 -1.400000e+01 0.000000e+00
2.000000e+01 -1.400000e+01 0.000000e+00
1.950000e+01 -1.400000e+01 0.000000e+00
1.900000e+01 -1.400000e+01 0.000000e+00
1.850000e+01 -1.400000e+01 0.000000e+00
1.800000e+01 -1.400000e+01 0.000000e+00
1.750000e+01 -1.400000e+01 0.000000e+00
1.700000e+01 -1.400000e+01 0.000000e+00
1.650000e+01 -1.400000e+01 0.000000e+00
1.600000e+01 -1.400000e+01 0.000000e+00
1.550000e+01 -1.400000e+01 0.000000e+00
1.500000e+01 -1.400000e+01 0.000000e+00
3.000000e+01 -1.450000e+01 0.000000e+00
2.950000e+01 -1.450000e+01 0.000000e+00
2.900000e+01 -1.450000e+01 0.000000e+00
2.850000e+01 -1.450000e+01 0.000000e+00
2.800000e+01 -1.450000e+01 0.000000e+00
2.750000e+01 -1.450000e+01 0.000000e+00
2.700000e+01 -1.450000e+01 0.000000e+00
2.650000e+01 -1.450000e+01 0.000000e+00
2.600000e+01 -1.450000e+01 0.000000e+00
2.550000e+01 -1.450000e+01 0.000000e+00
2.500000e+01 -1.450000e+01 0.000000e+00
2.450000e+01 -1.450000e+01 0.000000e+00
2.400000e+01 -1.450000e+01 0.000000e+00
2.350000e+01 -1.450000e+01 0.000000e+00
2.300000e+01 -1.450000e+01 0.000000e+00
2.250000e+01 -1.450000e+01 0.000000e+00
2.200000e+01 -1.450000e+01 0.000000e+00
2.150000e+01 -1.450000e+01 0.000000e+00
2.100000e+01 -1.450000e+01 0.000000e+00
2.050000e+01 -1.450000e+01 0.000000e+00
2.000000e+01 -1.450000e+01 0.000000e+00
1.950000e+01 -1.450000e+01 0.000000e+00
1.900000e+01 -1.450000e+01 0.000000e+00
1.850000e+01 -1.450000e+01 0.000000e+00
1.800000e+01 -1.450000e+01 0.000000e+00
1.750000e+01 -1.450000e+01 0.000000e+00
1.700000e+01 -1.450000e+01 0.000000e+00
1.650000e+01 -1.450000e+01 0.000000e+00
1.600000e+01 -1.450000e+01 0.000000e+00
1.550000e+01 -1.450000e+01 0.000000e+00
1.500000e+01 -1.450000e+01 0.000000e+00
3.000000e+01 -1.500000e+01 0.000000e+00
2.950000e+01 -1.500000e+01 0.000000e+00
2.900000e+01 -1.500000e+01 0.000000e+00
2.850000e+01 -1.500000e+01 0.000000e+00
2.800000e+01 -1.500000e+01 0.000000e+00
2.750000e+01 -1.500000e+01 0.000000e+00
2.700000e+01 -1.500000e+01 0.000000e+00
2.650000e+01 -1.500000e+01 0.000000e+00
2.600000e+01 -1.500000e+01 0.000000e+00
2.550000e+01 -1.500000e+01 0.000000e+00
2.500000e+01 -1.500000e+01 0.000000e+00
2.450000e+01 -1.500000e+01 0.000000e+00
2.400000e+01 -1.500000e+01 0.000000e+00
2.350000e+01 -1.500000e+01 0.000000e+00
2.300000e+01 -1.500000e+01 0.000000e+00
2.250000e+01 -1.500000e+01 0.000000e+00
2.200000e+01 -1.500000e+01 0.000000e+00
2.150000e+01 -1.500000e+01 0.000000e+00
2.100000e+01 -1.500000e+01 0.000000e+00
2.050000e+01 -1.500000e+01 0.000000e+00
2.000000e+01 -1.500000e+01 0.000000e+00
1.950000e+01 -1.500000e+01 0.000000e+00
1.900000e+01 -1.500000e+01 0.000000e+00
1.850000e+01 -1.500000e+01 0.000000e+00
1.800000e+01 -1.500000e+01 0.000000e+00
1.750000e+01 -1.500000e+01 0.000000e+00
1.700000e+01 -1.500000e+01 0.000000e+00
1.650000e+01 -1.500000e+01 0.000000e+00
1.600000e+01 -1.500000e+01 0.000000e+00
1.550000e+01 -1.500000e+01 0.000000e+00
1.500000e+01 -1.500000e+01 0.000000e+00
2.975000e+01 1.500000e+01 0.000000e+00
2.950000e+01 1.475000e+01 0.000000e+00
2.975000e+01 1.450000e+01 0.000000e+00
3.000000e+01 1.475000e+01 0.000000e+00
2.925000e+01 1.500000e+01 0.000000e+00
2.900000e+01 1.475000e+01 0.000000e+00
2.925000e+01 1.450000e+01 0.000000e+00
2.875000e+01 1.500000e+01 0.000000e+00
2.850000e+01 1.475000e+01 0.000000e+00
2.875000e+01 1.450000e+01 0.000000e+00
2.825000e+01 1.500000e+01 0.000000e+00
2.800000e+01 1.475000e+01 0.000000e+00
2.825000e+01 1.450000e+01 0.000000e+00
2.775000e+01 1.500000e+01 0.000000e+00
2.750000e+01 1.475000e+01 0.000000e+00
2.775000e+01 1.450000e+01 0.000000e+00
2.725000e+01 1.500000e+01 0.000000e+00
2.700000e+01 1.475000e+01 0.000000e+00
2.725000e+01 1.450000e+01 0.000000e+00
2.675000e+01 1.500000e+01 0.000000e+00
2.650000e+01 1.475000e+01 0.000000e+00
2.675000e+01 1.450000e+01 0.000000e+00
2.625000e+01 1.500000e+01 0.000000e+00
2.600000e+01 1.475000e+01 0.000000e+00
2.625000e+01 1.450000e+01 0.000000e+00
2.575000e+01 1.500000e+01 0.000000e+00
2.550000e+01 1.475000e+01 0.000000e+00
2.575000e+01 1.450000e+01 0.000000e+00
2.525000e+01 1.500000e+01 0.000000e+00
2.500000e+01 1.475000e+01 0.000000e+00
2.525000e+01 1.450000e+01 0.000000e+00
2.475000e+01 1.500000e+01 0.000000e+00
2.450000e+01 1.475000e+01 0.000000e+00
2.475000e+01 1.450000e+01 0.000000e+00
2.425000e+01 1.500000e+01 0.000000e+00
2.400000e+01 1.475000e+01 0.000000e+00
2.425000e+01 1.450000e+01 0.000000e+00
2.375000e+01 1.500000e+01 0.000000e+00
2.350000e+01 1.475000e+01 0.000000e+00
2.375000e+01 1.450000e+01 0.000000e+00
2.325000e+01 1.500000e+01 0.000000e+00
2.300000e+01 1.475000e+01 0.000000e+00
2.325000e+01 1.450000e+01 0.000000e+00
2.275000e+01 1.500000e+01 0.000000e+00
2.250000e+01 1.475000e+01 0.000000e+00
2.275000e+01 1.450000e+01 0.000000e+00
2.225000e+01 1.500000e+01 0.000000e+00
2.200000e+01 1.475000e+01 0.000000e+00
2.225000e+01 1.450000e+01 0.000000e+00
2.175000e+01 1.500000e+01 0.000000e+00
2.150000e+01 1.475000e+01 0.000000e+00
2.175000e+01 1.450000e+01 0.000000e+00
2.125000e+01 1.500000e+01 0.000000e+00
2.100000e+01 1.475000e+01 0.000000e+00
2.125000e+01 1.450000e+01 0.000000e+00
2.075000e+01 1.500000e+01 0.000000e+00
2.050000e+01 1.475000e+01 0.000000e+00
2.075000e+01 1.450000e+01 0.000000e+00
2.025000e+01 1.500000e+01 0.000000e+00
2.000000e+01 1.475000e+01 0.000000e+00
2.025000e+01 1.450000e+01 0.000000e+00
1.975000e+01 1.500000e+01 0.000000e+00
1.950000e+01 1.475000e+01 0.000000e+00
1.975000e+01 1.450000e+01 0.000000e+00
1.925000e+01 1.500000e+01 0.000000e+00
1.900000e+01 1.475000e+01 0.000000e+00
1.925000e+01 1.450000e+01 0.000000e+00
1.875000e+01 1.500000e+01 0.000000e+00
1.850000e+01 1.475000e+01 0.000000e+00
1.875000e+01 1.450000e+01 0.000000e+00
1.825000e+01 1.500000e+01 0.000000e+00
1.800000e+01 1.475000e+01 0.000000e+00
1.825000e+01 1.450000e+01 0.000000e+00
1.775000e+01 1.500000e+01 0.000000e+00
1.750000e+01 1.475000e+01 0.000000e+00
1.775000e+01 1.450000e+01 0.000000e+00
1.725000e+01 1.500000e+01 0.000000e+00
1.700000e+01 1.475000e+01 0.000000e+00
1.725000e+01 1.450000e+01 0.000000e+00
1.675000e+01 1.500000e+01 0.000000e+00
1.650000e+01 1.475000e+01 0.000000e+00
1.675000e+01 1.450000e+01 0.000000e+00
1.625000e+01 1.500000e+01 0.000000e+00
1.600000e+01 1.475000e+01 0.000000e+00
1.625000e+01 1.450000e+01 0.000000e+00
1.575000e+01 1.500000e+01 0.000000e+00
1.550000e+01 1.475000e+01 0.000000e+00
1.575000e+01 1.450000e+01 0.000000e+00
1.525000e+01 1.500000e+01 0.000000e+00
1.500000e+01 1.475000e+01 0.000000e+00
1.525000e+01 1.450000e+01 0.000000e+00
2.950000e+01 1.425000e+01 0.000000e+00
2.975000e+01 1.400000e+01 0.000000e+00
3.000000e+01 1.425000e+01 0.000000e+00
2.900000e+01 1.425000e+01 0.000000e+00
2.925000e+01 1.400000e+01 0.000000e+00
2.850000e+01 1.425000e+01 0.000000e+00
2.875000e+01 1.400000e+01 0.000000e+00
2.800000e+01 1.425000e+01 0.000000e+00
2.825000e+01 1.400000e+01 0.000000e+00
2.750000e+01 1.425000e+01 0.000000e+00
2.775000e+01 1.400000e+01 0.000000e+00
2.700000e+01 1.425000e+01 0.000000e+00
2.725000e+01 1.400000e+01 0.000000e+00
2.650000e+01 1.425000e+01 0.000000e+00
2.675000e+01 1.400000e+01 0.000000e+00
2.600000e+01 1.425000e+01 0.000000e+00
2.625000e+01 1.400000e+01 0.000000e+00
2.550000e+01 1.425000e+01 0.000000e+00
2.575000e+01 1.400000e+01 0.000000e+00
2.500000e+01 1.425000e+01 0.000000e+00
2.525000e+01 1.400000e+01 0.000000e+00
2.450000e+01 1.425000e+01 0.000000e+00
2.475000e+01 1.400000e+01 0.000000e+00
2.400000e+01 1.425000e+01 0.000000e+00
2.425000e+01 1.400000e+01 0.000000e+00
2.350000e+01 1.425000e+01 0.000000e+00
2.375000e+01 1.400000e+01 0.000000e+00
2.300000e+01 1.425000e+01 0.000000e+00
2.325000e+01 1.400000e+01 0.000000e+00
2.250000e+01 1.425000e+01 0.000000e+00
2.275000e+01 1.400000e+01 0.000000e+00
2.200000e+01 1.425000e+01 0.000000e+00
2.225000e+01 1.400000e+01 0.000000e+00
2.150000e+01 1.425000e+01 0.000000e+00
2.175000e+01 1.400000e+01 0.000000e+00
2.100000e+01 1.425000e+01 0.000000e+00
2.125000e+01 1.400000e+01 0.000000e+00
2.050000e+01 1.425000e+01 0.000000e+00
2.075000e+01 1.400000e+01 0.000000e+00
2.000000e+01 1.425000e+01 0.000000e+00
2.025000e+01 1.400000e+01 0.000000e+00
1.950000e+01 1.425000e+01 0.000000e+00
1.975000e+01 1.400000e+01 0.000000e+00
1.900000e+01 1.425000e+01 0.000000e+00
1.925000e+01 1.400000e+01 0.000000e+00
1.850000e+01 1.425000e+01 0.000000e+00
1.875000e+01 1.400000e+01 0.000000e+00
1.800000e+01 1.425000e+01 0.000000e+00
1.825000e+01 1.400000e+01 0.000000e+00
1.750000e+01 1.425000e+01 0.000000e+00
1.775000e+01 1.400000e+01 0.000000e+00
1.700000e+01 1.425000e+01 0.000000e+00
1.725000e+01 1.400000e+01 0.000000e+00
1.650000e+01 1.425000e+01 0.000000e+00
1.675000e+01 1.400000e+01 0.000000e+00
1.600000e+01 1.425000e+01 0.000000e+00
1.625000e+01 1.400000e+01 0.000000e+00
1.550000e+01 1.425000e+01 0.000000e+00
1.575000e+01 1.400000e+01 0.000000e+00
1.500000e+01 1.425000e+01 0.000000e+00
1.525000e+01 1.400000e+01 0.000000e+00
2.950000e+01 1.375000e+01 0.000000e+00
2.975000e+01 1.350000e+01 0.000000e+00
3.000000e+01 1.375000e+01 0.000000e+00
2.900000e+01 1.375000e+01 0.000000e+00
2.925000e+01 1.350000e+01 0.000000e+00
2.850000e+01 1.375000e+01 0.000000e+00
2.875000e+01 1.350000e+01 0.000000e+00
2.800000e+01 1.375000e+01 0.000000e+00
2.825000e+01 1.350000e+01 0.000000e+00
2.750000e+01 1.375000e+01 0.000000e+00
2.775000e+01 1.350000e+01 0.000000e+00
2.700000e+01 1.375000e+01 0.000000e+00
2.725000e+01 1.350000e+01 0.000000e+00
2.650000e+01 1.375000e+01 0.000000e+00
2.675000e+01 1.350000e+01 0.000000e+00
2.600000e+01 1.375000e+01 0.000000e+00
2.625000e+01 1.350000e+01 0.000000e+00
2.550000e+01 1.375000e+01 0.000000e+00
2.575000e+01 1.350000e+01 0.000000e+00
2.500000e+01 1.375000e+01 0.000000e+00
2.525000e+01 1.350000e+01 0.000000e+00
2.450000e+01 1.375000e+01 0.000000e+00
2.475000e+01 1.350000e+01 0.000000e+00
2.400000e+01 1.375000e+01 0.000000e+00
2.425000e+01 1.350000e+01 0.000000e+00
2.350000e+01 1.375000e+01 0.000000e+00
2.375000e+01 1.350000e+01 0.000000e+00
2.300000e+01 1.375000e+01 0.000000e+00
2.325000e+01 1.350000e+01 0.000000e+00
2.250000e+01 1.375000e+01 0.000000e+00
2.275000e+01 1.350000e+01 0.000000e+00
2.200000e+01 1.375000e+01 0.000000e+00
2.225000e+01 1.350000e+01 0.000000e+00
2.150000e+01 1.375000e+01 0.000000e+00
2.175000e+01 1.350000e+01 0.000000e+00
2.100000e+01 1.375000e+01 0.000000e+00
2.125000e+01 1.350000e+01 0.000000e+00
2.050000e+01 1.375000e+01 0.000000e+00
2.075000e+01 1.350000e+01 0.000000e+00
2.000000e+01 1.375000e+01 0.000000e+00
2.025000e+01 1.350000e+01 0.000000e+00
1.950000e+01 1.375000e+01 0.000000e+00
1.975000e+01 1.350000e+01 0.000000e+00
1.900000e+01 1.375000e+01 0.000000e+00
1.925000e+01 1.350000e+01 0.000000e+00
1.850000e+01 1.375000e+01 0.000000e+00
1.875000e+01 1.350000e+01 0.000000e+00
1.800000e+01 1.375000e+01 0.000000e+00
1.825000e+01 1.350000e+01 0.000000e+00
1.750000e+01 1.375000e+01 0.000000e+00
1.775000e+01 1.350000e+01 0.000000e+00
1.700000e+01 1.375000e+01 0.000000e+00
1.725000e+01 1.350000e+01 0.000000e+00
1.650000e+01 1.375000e+01 0.000000e+00
1.675000e+01 1.350000e+01 0.000000e+00
1.600000e+01 1.375000e+01 0.000000e+00
1.625000e+01 1.350000e+01 0.000000e+00
1.550000e+01 1.375000e+01 0.000000e+00
1.575000e+01 1.350000e+01 0.000000e+00
1.500000e+01 1.375000e+01 0.000000e+00
1.525000e+01 1.350000e+01 0.000000e+00
2.950000e+01 1.325000e+01 0.000000e+00
2.975000e+01 1.300000e+01 0.000000e+00
3.000000e+01 1.325000e+01 0.000000e+00
2.900000e+01 1.325000e+01 0.000000e+00
2.925000e+01 1.300000e+01 0.000000e+00
2.850000e+01 1.325000e+01 0.000000e+00
2.875000e+01 1.300000e+01 0.000000e+00
2.800000e+01 1.325000e+01 0.000000e+00
2.825000e+01 1.300000e+01 0.000000e+00
2.750000e+01 1.325000e+01 0.000000e+00
2.775000e+01 1.300000e+01 0.000000e+00
2.700000e+01 1.325000e+01 0.000000e+00
2.725000e+01 1.300000e+01 0.000000e+00
2.650000e+01 1.325000e+01 0.000000e+00
2.675000e+01 1.300000e+01 0.000000e+00
2.600000e+01 1.325000e+01 0.000000e+00
2.625000e+01 1.300000e+01 0.000000e+00
2.550000e+01 1.325000e+01 0.000000e+00
2.575000e+01 1.300000e+01 0.000000e+00
2.500000e+01 1.325000e+01 0.000000e+00
2.525000e+01 1.300000e+01 0.000000e+00
2.450000e+01 1.325000e+01 0.000000e+00
2.475000e+01 1.300000e+01 0.000000e+00
2.400000e+01 1.325000e+01 0.000000e+00
2.425000e+01 1.300000e+01 0.000000e+00
2.350000e+01 1.325000e+01 0.000000e+00
2.375000e+01 1.300000e+01 0.000000e+00
2.300000e+01 1.325000e+01 0.000000e+00
2.325000e+01 1.300000e+01 0.000000e+00
2.250000e+01 1.325000e+01 0.000000e+00
2.275000e+01 1.300000e+01 0.000000e+00
2.200000e+01 1.325000e+01 0.000000e+00
2.225000e+01 1.300000e+01 0.000000e+00
2.150000e+01 1.325000e+01 0.000000e+00
2.175000e+01 1.300000e+01 0.000000e+00
2.100000e+01 1.325000e+01 0.000000e+00
2.125000e+01 1.300000e+01 0.000000e+00
2.050000e+01 1.325000e+01 0.000000e+00
2.075000e+01 1.300000e+01 0.000000e+00
2.000000e+01 1.325000e+01 0.000000e+00
2.025000e+01 1.300000e+01 0.000000e+00
1.950000e+01 1.325000e+01 0.000000e+00
1.975000e+01 1.300000e+01 0.000000e+00
1.900000e+01 1.325000e+01 0.000000e+00
1.925000e+01 1.300000e+01 0.000000e+00
1.850000e+01 1.325000e+01 0.000000e+00
1.875000e+01 1.300000e+01 0.000000e+00
1.800000e+01 1.325000e+01 0.000000e+00
1.825000e+01 1.300000e+01 0.000000e+00
1.750000e+01 1.325000e+01 0.000000e+00
1.775000e+01 1.300000e+01 0.000000e+00
1.700000e+01 1.325000e+01 0.000000e+00
1.725000e+01 1.300000e+01 0.000000e+00
1.650000e+01 1.325000e+01 0.000000e+00
1.675000e+01 1.300000e+01 0.000000e+00
1.600000e+01 1.325000e+01 0.000000e+00
1.625000e+01 1.300000e+01 0.000000e+00
1.550000e+01 1.325000e+01 0.000000e+00
1.575000e+01 1.300000e+01 0.000000e+00
1.500000e+01 1.325000e+01 0.000000e+00
1.525000e+01 1.300000e+01 0.000000e+00
2.950000e+01 1.275000e+01 0.000000e+00
2.975000e+01 1.250000e+01 0.000000e+00
3.000000e+01 1.275000e+01 0.000000e+00
2.900000e+01 1.275000e+01 0.000000e+00
2.925000e+01 1.250000e+01 0.000000e+00
2.850000e+01 1.275000e+01 0.000000e+00
2.875000e+01 1.250000e+01 0.000000e+00
2.800000e+01 1.275000e+01 0.000000e+00
2.825000e+01 1.250000e+01 0.000000e+00
2.750000e+01 1.275000e+01 0.000000e+00
2.775000e+01 1.250000e+01 0.000000e+00
2.700000e+01 1.275000e+01 0.000000e+00
2.725000e+01 1.250000e+01 0.000000e+00
2.650000e+01 1.275000e+01 0.000000e+00
2.675000e+01 1.250000e+01 0.000000e+00
2.600000e+01 1.275000e+01 0.000000e+00
2.625000e+01 1.250000e+01 0.000000e+00
2.550000e+01 1.275000e+01 0.000000e+00
2.575000e+01 1.250000e+01 0.000000e+00
2.500000e+01 1.275000e+01 0.000000e+00
2.525000e+01 1.250000e+01 0.000000e+00
2.450000e+01 1.275000e+01 0.000000e+00
2.475000e+01 1.250000e+01 0.000000e+00
2.400000e+01 1.275000e+01 0.000000e+00
2.425000e+01 1.250000e+01 0.000000e+00
2.350000e+01 1.275000e+01 0.000000e+00
2.375000e+01 1.250000e+01 0.000000e+00
2.300000e+01 1.275000e+01 0.000000e+00
2.325000e+01 1.250000e+01 0.000000e+00
2.250000e+01 1.275000e+01 0.000000e+00
2.275000e+01 1.250000e+01 0.000000e+00
2.200000e+01 1.275000e+01 0.000000e+00
2.225000e+01 1.250000e+01 0.000000e+00
2.150000e+01 1.275000e+01 0.000000e+00
2.175000e+01 1.250000e+01 0.000000e+00
2.100000e+01 1.275000e+01 0.000000e+00
2.125000e+01 1.250000e+01 0.000000e+00
2.050000e+01 1.275000e+01 0.000000e+00
2.075000e+01 1.250000e+01 0.000000e+00
2.000000e+01 1.275000e+01 0.000000e+00
2.025000e+01 1.250000e+01 0.000000e+00
1.950000e+01 1.275000e+01 0.000000e+00
1.975000e+01 1.250000e+01 0.000000e+00
1.900000e+01 1.275000e+01 0.000000e+00
1.925000e+01 1.250000e+01 0.000000e+00
1.850000e+01 1.275000e+01 0.000000e+00
1.875000e+01 1.250000e+01 0.000000e+00
1.800000e+01 1.275000e+01 0.000000e+00
1.825000e+01 1.250000e+01 0.000000e+00
1.750000e+01 1.275000e+01 0.000000e+00
1.775000e+01 1.250000e+01 0.000000e+00
1.700000e+01 1.275000e+01 0.000000e+00
1.725000e+01 1.250000e+01 0.000000e+00
1.650000e+01 1.275000e+01 0.000000e+00
1.675000e+01 1.250000e+01 0.000000e+00
1.600000e+01 1.275000e+01 0.000000e+00
1.625000e+01 1.250000e+01 0.000000e+00
1.550000e+01 1.275000e+01 0.000000e+00
1.575000e+01 1.250000e+01 0.000000e+00
1.500000e+01 1.275000e+01 0.000000e+00
1.525000e+01 1.250000e+01 0.000000e+00
2.950000e+01 1.225000e+01 0.000000e+00
2.975000e+01 1.200000e+01 0.000000e+00
3.000000e+01 1.225000e+01 0.000000e+00
2.900000e+01 1.225000e+01 0.000000e+00
2.925000e+01 1.200000e+01 0.000000e+00
2.850000e+01 1.225000e+01 0.000000e+00
2.875000e+01 1.200000e+01 0.000000e+00
2.800000e+01 1.225000e+01 0.000000e+00
2.825000e+01 1.200000e+01 0.000000e+00
2.750000e+01 1.225000e+01 0.000000e+00
2.775000e+01 1.200000e+01 0.000000e+00
2.700000e+01 1.225000e+01 0.000000e+00
2.725000e+01 1.200000e+01 0.000000e+00
2.650000e+01 1.225000e+01 0.000000e+00
2.675000e+01 1.200000e+01 0.000000e+00
2.600000e+01 1.225000e+01 0.000000e+00
2.625000e+01 1.200000e+01 0.000000e+00
2.550000e+01 1.225000e+01 0.000000e+00
2.575000e+01 1.200000e+01 0.000000e+00
2.500000e+01 1.225000e+01 0.000000e+00
2.525000e+01 1.200000e+01 0.000000e+00
2.450000e+01 1.225000e+01 0.000000e+00
2.475000e+01 1.200000e+01 0.000000e+00
2.400000e+01 1.225000e+01 0.000000e+00
2.425000e+01 1.200000e+01 0.000000e+00
2.350000e+01 1.225000e+01 0.000000e+00
2.375000e+01 1.200000e+01 0.000000e+00
2.300000e+01 1.225000e+01 0.000000e+00
2.325000e+01 1.200000e+01 0.000000e+00
2.250000e+01 1.225000e+01 0.000000e+00
2.275000e+01 1.200000e+01 0.000000e+00
2.200000e+01 1.225000e+01 0.000000e+00
2.225000e+01 1.200000e+01 0.000000e+00
2.150000e+01 1.225000e+01 0.000000e+00
2.175000e+01 1.200000e+01 0.000000e+00
2.100000e+01 1.225000e+01 0.000000e+00
2.125000e+01 1.200000e+01 0.000000e+00
2.050000e+01 1.225000e+01 0.000000e+00
2.075000e+01 1.200000e+01 0.000000e+00
2.000000e+01 1.225000e+01 0.000000e+00
2.025000e+01 1.200000e+01 0.000000e+00
1.950000e+01 1.225000e+01 0.000000e+00
1.975000e+01 1.200000e+01 0.000000e+00
1.900000e+01 1.225000e+01 0.000000e+00
1.925000e+01 1.200000e+01 0.000000e+00
1.850000e+01 1.225000e+01 0.000000e+00
1.875000e+01 1.200000e+01 0.000000e+00
1.800000e+01 1.225000e+01 0.000000e+00
1.825000e+01 1.200000e+01 0.000000e+00
1.750000e+01 1.225000e+01 0.000000e+00
1.775000e+01 1.200000e+01 0.000000e+00
1.700000e+01 1.225000e+01 0.000000e+00
1.725000e+01 1.200000e+01 0.000000e+00
1.650000e+01 1.225000e+01 0.000000e+00
1.675000e+01 1.200000e+01 0.000000e+00
1.600000e+01 1.225000e+01 0.000000e+00
1.625000e+01 1.200000e+01 0.000000e+00
1.550000e+01 1.225000e+01 0.000000e+00
1.575000e+01 1.200000e+01 0.000000e+00
1.500000e+01 1.225000e+01 0.000000e+00
1.525000e+01 1.200000e+01 0.000000e+00
2.950000e+01 1.175000e+01 0.000000e+00
2.975000e+01 1.150000e+01 0.000000e+00
3.000000e+01 1.175000e+01 0.000000e+00
2.900000e+01 1.175000e+01 0.000000e+00
2.925000e+01 1.150000e+01 0.000000e+00
2.850000e+01 1.175000e+01 0.000000e+00
2.875000e+01 1.150000e+01 0.000000e+00
2.800000e+01 1.175000e+01 0.000000e+00
2.825000e+01 1.150000e+01 0.000000e+00
2.750000e+01 1.175000e+01 0.000000e+00
2.775000e+01 1.150000e+01 0.000000e+00
2.700000e+01 1.175000e+01 0.000000e+00
2.725000e+01 1.150000e+01 0.000000e+00
2.650000e+01 1.175000e+01 0.000000e+00
2.675000e+01 1.150000e+01 0.000000e+00
2.600000e+01 1.175000e+01 0.000000e+00
2.625000e+01 1.150000e+01 0.000000e+00
2.550000e+01 1.175000e+01 0.000000e+00
2.575000e+01 1.150000e+01 0.000000e+00
2.500000e+01 1.175000e+01 0.000000e+00
2.525000e+01 1.150000e+01 0.000000e+00
2.450000e+01 1.175000e+01 0.000000e+00
2.475000e+01 1.150000e+01 0.000000e+00
2.400000e+01 1.175000e+01 0.000000e+00
2.425000e+01 1.150000e+01 0.000000e+00
2.350000e+01 1.175000e+01 0.000000e+00
2.375000e+01 1.150000e+01 0.000000e+00
2.300000e+01 1.175000e+01 0.000000e+00
2.325000e+01 1.150000e+01 0.000000e+00
2.250000e+01 1.175000e+01 0.000000e+00
2.275000e+01 1.150000e+01 0.000000e+00
2.200000e+01 1.175000e+01 0.000000e+00
2.225000e+01 1.150000e+01 0.000000e+00
2.150000e+01 1.175000e+01 0.000000e+00
2.175000e+01 1.150000e+01 0.000000e+00
2.100000e+01 1.175000e+01 0.000000e+00
2.125000e+01 1.150000e+01 0.000000e+00
2.050000e+01 1.175000e+01 0.000000e+00
2.075000e+01 1.150000e+01 0.000000e+00
2.000000e+01 1.175000e+01 0.000000e+00
2.025000e+01 1.150000e+01 0.000000e+00
1.950000e+01 1.175000e+01 0.000000e+00
1.975000e+01 1.150000e+01 0.000000e+00
1.900000e+01 1.175000e+01 0.000000e+00
1.925000e+01 1.150000e+01 0.000000e+00
1.850000e+01 1.175000e+01 0.000000e+00
1.875000e+01 1.150000e+01 0.000000e+00
1.800000e+01 1.175000e+01 0.000000e+00
1.825000e+01 1.150000e+01 0.000000e+00
1.750000e+01 1.175000e+01 0.000000e+00
1.775000e+01 1.150000e+01 0.000000e+00
1.700000e+01 1.175000e+01 0.000000e+00
1.725000e+01 1.150000e+01 0.000000e+00
1.650000e+01 1.175000e+01 0.000000e+00
1.675000e+01 1.150000e+01 0.000000e+00
1.600000e+01 1.175000e+01 0.000000e+00
1.625000e+01 1.150000e+01 0.000000e+00
1.550000e+01 1.175000e+01 0.000000e+00
1.575000e+01 1.150000e+01 0.000000e+00
1.500000e+01 1.175000e+01 0.000000e+00
1.525000e+01 1.150000e+01 0.000000e+00
2.950000e+01 1.125000e+01 0.000000e+00
2.975000e+01 1.100000e+01 0.000000e+00
3.000000e+01 1.125000e+01 0.000000e+00
2.900000e+01 1.125000e+01 0.000000e+00
2.925000e+01 1.100000e+01 0.000000e+00
2.850000e+01 1.125000e+01 0.000000e+00
2.875000e+01 1.100000e+01 0.000000e+00
2.800000e+01 1.125000e+01 0.000000e+00
2.825000e+01 1.100000e+01 0.000000e+00
2.750000e+01 1.125000e+01 0.000000e+00
2.775000e+01 1.100000e+01 0.000000e+00
2.700000e+01 1.125000e+01 0.000000e+00
2.725000e+01 1.100000e+01 0.000000e+00
2.650000e+01 1.125000e+01 0.000000e+00
2.675000e+01 1.100000e+01 0.000000e+00
2.600000e+01 1.125000e+01 0.000000e+00
2.625000e+01 1.100000e+01 0.000000e+00
2.550000e+01 1.125000e+01 0.000000e+00
2.575000e+01 1.100000e+01 0.000000e+00
2.500000e+01 1.125000e+01 0.000000e+00
2.525000e+01 1.100000e+01 0.000000e+00
2.450000e+01 1.125000e+01 0.000000e+00
2.475000e+01 1.100000e+01 0.000000e+00
2.400000e+01 1.125000e+01 0.000000e+00
2.425000e+01 1.100000e+01 0.000000e+00
2.350000e+01 1.125000e+01 0.000000e+00
2.375000e+01 1.100000e+01 0.000000e+00
2.300000e+01 1.125000e+01 0.000000e+00
2.325000e+01 1.100000e+01 0.000000e+00
2.250000e+01 1.125000e+01 0.000000e+00
2.275000e+01 1.100000e+01 0.000000e+00
2.200000e+01 1.125000e+01 0.000000e+00
2.225000e+01 1.100000e+01 0.000000e+00
2.150000e+01 1.125000e+01 0.000000e+00
2.175000e+01 1.100000e+01 0.000000e+00
2.100000e+01 1.125000e+01 0.000000e+00
2.125000e+01 1.100000e+01 0.000000e+00
2.050000e+01 1.125000e+01 0.000000e+00
2.075000e+01 1.100000e+01 0.000000e+00
2.000000e+01 1.125000e+01 0.000000e+00
2.025000e+01 1.100000e+01 0.000000e+00
1.950000e+01 1.125000e+01 0.000000e+00
1.975000e+01 1.100000e+01 0.000000e+00
1.900000e+01 1.125000e+01 0.000000e+00
1.925000e+01 1.100000e+01 0.000000e+00
1.850000e+01 1.125000e+01 0.000000e+00
1.875000e+01 1.100000e+01 0.000000e+00
1.800000e+01 1.125000e+01 0.000000e+00
1.825000e+01 1.100000e+01 0.000000e+00
1.750000e+01 1.125000e+01 0.000000e+00
1.775000e+01 1.100000e+01 0.000000e+00
1.700000e+01 1.125000e+01 0.000000e+00
1.725000e+01 1.100000e+01 0.000000e+00
1.650000e+01 1.125000e+01 0.000000e+00
1.675000e+01 1.100000e+01 0.000000e+00
1.600000e+01 1.125000e+01 0.000000e+00
1.625000e+01 1.100000e+01 0.000000e+00
1.550000e+01 1.125000e+01 0.000000e+00
1.575000e+01 1.100000e+01 0.000000e+00
1.500000e+01 1.125000e+01 0.000000e+00
1.525000e+01 1.100000e+01 0.000000e+00
2.950000e+01 1.075000e+01 0.000000e+00
2.975000e+01 1.050000e+01 0.000000e+00
3.000000e+01 1.075000e+01 0.000000e+00
2.900000e+01 1.075000e+01 0.000000e+00
2.925000e+01 1.050000e+01 0.000000e+00
2.850000e+01 1.075000e+01 0.000000e+00
2.875000e+01 1.050000e+01 0.000000e+00
2.800000e+01 1.075000e+01 0.000000e+00
2.825000e+01 1.050000e+01 0.000000e+00
2.750000e+01 1.075000e+01 0.000000e+00
2.775000e+01 1.050000e+01 0.000000e+00
2.700000e+01 1.075000e+01 0.000000e+00
2.725000e+01 1.050000e+01 0.000000e+00
2.650000e+01 1.075000e+01 0.000000e+00
2.675000e+01 1.050000e+01 0.000000e+00
2.600000e+01 1.075000e+01 0.000000e+00
2.625000e+01 1.050000e+01 0.000000e+00
2.550000e+01 1.075000e+01 0.000000e+00
2.575000e+01 1.050000e+01 0.000000e+00
2.500000e+01 1.075000e+01 0.000000e+00
2.525000e+01 1.050000e+01 0.000000e+00
2.450000e+01 1.075000e+01 0.000000e+00
2.475000e+01 1.050000e+01 0.000000e+00
2.400000e+01 1.075000e+01 0.000000e+00
2.425000e+01 1.050000e+01 0.000000e+00
2.350000e+01 1.075000e+01 0.000000e+00
2.375000e+01 1.050000e+01 0.000000e+00
2.300000e+01 1.075000e+01 0.000000e+00
2.325000e+01 1.050000e+01 0.000000e+00
2.250000e+01 1.075000e+01 0.000000e+00
2.275000e+01 1.050000e+01 0.000000e+00
2.200000e+01 1.075000e+01 0.000000e+00
2.225000e+01 1.050000e+01 0.000000e+00
2.150000e+01 1.075000e+01 0.000000e+00
2.175000e+01 1.050000e+01 0.000000e+00
2.100000e+01 1.075000e+01 0.000000e+00
2.125000e+01 1.050000e+01 0.000000e+00
2.050000e+01 1.075000e+01 0.000000e+00
2.075000e+01 1.050000e+01 0.000000e+00
2.000000e+01 1.075000e+01 0.000000e+00
2.025000e+01 1.050000e+01 0.000000e+00
1.950000e+01 1.075000e+01 0.000000e+00
1.975000e+01 1.050000e+01 0.000000e+00
1.900000e+01 1.075000e+01 0.000000e+00
1.925000e+01 1.050000e+01 0.000000e+00
1.850000e+01 1.075000e+01 0.000000e+00
1.875000e+01 1.050000e+01 0.000000e+00
1.800000e+01 1.075000e+01 0.000000e+00
1.825000e+01 1.050000e+01 0.000000e+00
1.750000e+01 1.075000e+01 0.000000e+00
1.775000e+01 1.050000e+01 0.000000e+00
1.700000e+01 1.075000e+01 0.000000e+00
1.725000e+01 1.050000e+01 0.000000e+00
1.650000e+01 1.075000e+01 0.000000e+00
1.675000e+01 1.050000e+01 0.000000e+00
1.600000e+01 1.075000e+01 0.000000e+00
1.625000e+01 1.050000e+01 0.000000e+00
1.550000e+01 1.075000e+01 0.000000e+00
1.575000e+01 1.050000e+01 0.000000e+00
1.500000e+01 1.075000e+01 0.000000e+00
1.525000e+01 1.050000e+01 0.000000e+00
2.950000e+01 1.025000e+01 0.000000e+00
2.975000e+01 1.000000e+01 0.000000e+00
3.000000e+01 1.025000e+01 0.000000e+00
2.900000e+01 1.025000e+01 0.000000e+00
2.925000e+01 1.000000e+01 0.000000e+00
2.850000e+01 1.025000e+01 0.000000e+00
2.875000e+01 1.000000e+01 0.000000e+00
2.800000e+01 1.025000e+01 0.000000e+00
2.825000e+01 1.000000e+01 0.000000e+00
2.750000e+01 1.025000e+01 0.000000e+00
2.775000e+01 1.000000e+01 0.000000e+00
2.700000e+01 1.025000e+01 0.000000e+00
2.725000e+01 1.000000e+01 0.000000e+00
2.650000e+01 1.025000e+01 0.000000e+00
2.675000e+01 1.000000e+01 0.000000e+00
2.600000e+01 1.025000e+01 0.000000e+00
2.625000e+01 1.000000e+01 0.000000e+00
2.550000e+01 1.025000e+01 0.000000e+00
2.575000e+01 1.000000e+01 0.000000e+00
2.500000e+01 1.025000e+01 0.000000e+00
2.525000e+01 1.000000e+01 0.000000e+00
2.450000e+01 1.025000e+01 0.000000e+00
2.475000e+01 1.000000e+01 0.000000e+00
2.400000e+01 1.025000e+01 0.000000e+00
2.425000e+01 1.000000e+01 0.000000e+00
2.350000e+01 1.025000e+01 0.000000e+00
2.375000e+01 1.000000e+01 0.000000e+00
2.300000e+01 1.025000e+01 0.000000e+00
2.325000e+01 1.000000e+01 0.000000e+00
2.250000e+01 1.025000e+01 0.000000e+00
2.275000e+01 1.000000e+01 0.000000e+00
2.200000e+01 1.025000e+01 0.000000e+00
2.225000e+01 1.000000e+01 0.000000e+00
2.150000e+01 1.025000e+01 0.000000e+00
2.175000e+01 1.000000e+01 0.000000e+00
2.100000e+01 1.025000e+01 0.000000e+00
2.125000e+01 1.000000e+01 0.000000e+00
2.050000e+01 1.025000e+01 0.000000e+00
2.075000e+01 1.000000e+01 0.000000e+00
2.000000e+01 1.025000e+01 0.000000e+00
2.025000e+01 1.000000e+01 0.000000e+00
1.950000e+01 1.025000e+01 0.000000e+00
1.975000e+01 1.000000e+01 0.000000e+00
1.900000e+01 1.025000e+01 0.000000e+00
1.925000e+01 1.000000e+01 0.000000e+00
1.850000e+01 1.025000e+01 0.000000e+00
1.875000e+01 1.000000e+01 0.000000e+00
1.800000e+01 1.025000e+01 0.000000e+00
1.825000e+01 1.000000e+01 0.000000e+00
1.750000e+01 1.025000e+01 0.000000e+00
1.775000e+01 1.000000e+01 0.000000e+00
1.700000e+01 1.025000e+01 0.000000e+00
1.725000e+01 1.000000e+01 0.000000e+00
1.650000e+01 1.025000e+01 0.000000e+00
1.675000e+01 1.000000e+01 0.000000e+00
1.600000e+01 1.025000e+01 0.000000e+00
1.625000e+01 1.000000e+01 0.000000e+00
1.550000e+01 1.025000e+01 0.000000e+00
1.575000e+01 1.000000e+01 0.000000e+00
1.500000e+01 1.025000e+01 0.000000e+00
1.525000e+01 1.000000e+01 0.000000e+00
2.950000e+01 9.750000e+00 0.000000e+00
2.975000e+01 9.500000e+00 0.000000e+00
3.000000e+01 9.750000e+00 0.000000e+00
2.900000e+01 9.750000e+00 0.000000e+00
2.925000e+01 9.500000e+00 0.000000e+00
2.850000e+01 9.750000e+00 0.000000e+00
2.875000e+01 9.500000e+00 0.000000e+00
2.800000e+01 9.750000e+00 0.000000e+00
2.825000e+01 9.500000e+00 0.000000e+00
2.750000e+01 9.750000e+00 0.000000e+00
2.775000e+01 9.500000e+00 0.000000e+00
2.700000e+01 9.750000e+00 0.000000e+00
2.725000e+01 9.500000e+00 0.000000e+00
2.650000e+01 9.750000e+00 0.000000e+00
2.675000e+01 9.500000e+00 0.000000e+00
2.600000e+01 9.750000e+00 0.000000e+00
2.625000e+01 9.500000e+00 0.000000e+00
2.550000e+01 9.750000e+00 0.000000e+00
2.575000e+01 9.500000e+00 0.000000e+00
2.500000e+01 9.750000e+00 0.000000e+00
2.525000e+01 9.500000e+00 0.000000e+00
2.450000e+01 9.750000e+00 0.000000e+00
2.475000e+01 9.500000e+00 0.000000e+00
2.400000e+01 9.750000e+00 0.000000e+00
2.425000e+01 9.500000e+00 0.000000e+00
2.350000e+01 9.750000e+00 0.000000e+00
2.375000e+01 9.500000e+00 0.000000e+00
2.300000e+01 9.750000e+00 0.000000e+00
2.325000e+01 9.500000e+00 0.000000e+00
2.250000e+01 9.750000e+00 0.000000e+00
2.275000e+01 9.500000e+00 0.000000e+00
2.200000e+01 9.750000e+00 0.000000e+00
2.225000e+01 9.500000e+00 0.000000e+00
2.150000e+01 9.750000e+00 0.000000e+00
2.175000e+01 9.500000e+00 0.000000e+00
2.100000e+01 9.750000e+00 0.000000e+00
2.125000e+01 9.500000e+00 0.000000e+00
2.050000e+01 9.750000e+00 0.000000e+00
2.075000e+01 9.500000e+00 0.000000e+00
2.000000e+01 9.750000e+00 0.000000e+00
2.025000e+01 9.500000e+00 0.000000e+00
1.950000e+01 9.750000e+00 0.000000e+00
1.975000e+01 9.500000e+00 0.000000e+00
1.900000e+01 9.750000e+00 0.000000e+00
1.925000e+01 9.500000e+00 0.000000e+00
1.850000e+01 9.750000e+00 0.000000e+00
1.875000e+01 9.500000e+00 0.000000e+00
1.800000e+01 9.750000e+00 0.000000e+00
1.825000e+01 9.500000e+00 0.000000e+00
1.750000e+01 9.750000e+00 0.000000e+00
1.775000e+01 9.500000e+00 0.000000e+00
1.700000e+01 9.750000e+00 0.000000e+00
1.725000e+01 9.500000e+00 0.000000e+00
1.650000e+01 9.750000e+00 0.000000e+00
1.675000e+01 9.500000e+00 0.000000e+00
1.600000e+01 9.750000e+00 0.000000e+00
1.625000e+01 9.500000e+00 0.000000e+00
1.550000e+01 9.750000e+00 0.000000e+00
1.575000e+01 9.500000e+00 0.000000e+00
1.500000e+01 9.750000e+00 0.000000e+00
1.525000e+01 9.500000e+00 0.000000e+00
2.950000e+01 9.250000e+00 0.000000e+00
2.975000e+01 9.000000e+00 0.000000e+00
3.000000e+01 9.250000e+00 0.000000e+00
2.900000e+01 9.250000e+00 0.000000e+00
2.925000e+01 9.000000e+00 0.000000e+00
2.850000e+01 9.250000e+00 0.000000e+00
2.875000e+01 9.000000e+00 0.000000e+00
2.800000e+01 9.250000e+00 0.000000e+00
2.825000e+01 9.000000e+00 0.000000e+00
2.750000e+01 9.250000e+00 0.000000e+00
2.775000e+01 9.000000e+00 0.000000e+00
2.700000e+01 9.250000e+00 0.000000e+00
2.725000e+01 9.000000e+00 0.000000e+00
2.650000e+01 9.250000e+00 0.000000e+00
2.675000e+01 9.000000e+00 0.000000e+00
2.600000e+01 9.250000e+00 0.000000e+00
2.625000e+01 9.000000e+00 0.000000e+00
2.550000e+01 9.250000e+00 0.000000e+00
2.575000e+01 9.000000e+00 0.000000e+00
2.500000e+01 9.250000e+00 0.000000e+00
2.525000e+01 9.000000e+00 0.000000e+00
2.450000e+01 9.250000e+00 0.000000e+00
2.475000e+01 9.000000e+00 0.000000e+00
2.400000e+01 9.250000e+00 0.000000e+00
2.425000e+01 9.000000e+00 0.000000e+00
2.350000e+01 9.250000e+00 0.000000e+00
2.375000e+01 9.000000e+00 0.000000e+00
2.300000e+01 9.250000e+00 0.000000e+00
2.325000e+01 9.000000e+00 0.000000e+00
2.250000e+01 9.250000e+00 0.000000e+00
2.275000e+01 9.000000e+00 0.000000e+00
2.200000e+01 9.250000e+00 0.000000e+00
2.225000e+01 9.000000e+00 0.000000e+00
2.150000e+01 9.250000e+00 0.000000e+00
2.175000e+01 9.000000e+00 0.000000e+00
2.100000e+01 9.250000e+00 0.000000e+00
2.125000e+01 9.000000e+00 0.000000e+00
2.050000e+01 9.250000e+00 0.000000e+00
2.075000e+01 9.000000e+00 0.000000e+00
2.000000e+01 9.250000e+00 0.000000e+00
2.025000e+01 9.000000e+00 0.000000e+00
1.950000e+01 9.250000e+00 0.000000e+00
1.975000e+01 9.000000e+00 0.000000e+00
1.900000e+01 9.250000e+00 0.000000e+00
1.925000e+01 9.000000e+00 0.000000e+00
1.850000e+01 9.250000e+00 0.000000e+00
1.875000e+01 9.000000e+00 0.000000e+00
1.800000e+01 9.250000e+00 0.000000e+00
1.825000e+01 9.000000e+00 0.000000e+00
1.750000e+01 9.250000e+00 0.000000e+00
1.775000e+01 9.000000e+00 0.000000e+00
1.700000e+01 9.250000e+00 0.000000e+00
1.725000e+01 9.000000e+00 0.000000e+00
1.650000e+01 9.250000e+00 0.000000e+00
1.675000e+01 9.000000e+00 0.000000e+00
1.600000e+01 9.250000e+00 0.000000e+00
1.625000e+01 9.000000e+00 0.000000e+00
1.550000e+01 9.250000e+00 0.000000e+00
1.575000e+01 9.000000e+00 0.000000e+00
1.500000e+01 9.250000e+00 0.000000e+00
1.525000e+01 9.000000e+00 0.000000e+00
2.950000e+01 8.750000e+00 0.000000e+00
2.975000e+01 8.500000e+00 0.000000e+00
3.000000e+01 8.750000e+00 0.000000e+00
2.900000e+01 8.750000e+00 0.000000e+00
2.925000e+01 8.500000e+00 0.000000e+00
2.850000e+01 8.750000e+00 0.000000e+00
2.875000e+01 8.500000e+00 0.000000e+00
2.800000e+01 8.750000e+00 0.000000e+00
2.825000e+01 8.500000e+00 0.000000e+00
2.750000e+01 8.750000e+00 0.000000e+00
2.775000e+01 8.500000e+00 0.000000e+00
2.700000e+01 8.750000e+00 0.000000e+00
2.725000e+01 8.500000e+00 0.000000e+00
2.650000e+01 8.750000e+00 0.000000e+00
2.675000e+01 8.500000e+00 0.000000e+00
2.600000e+01 8.750000e+00 0.000000e+00
2.625000e+01 8.500000e+00 0.000000e+00
2.550000e+01 8.750000e+00 0.000000e+00
2.575000e+01 8.500000e+00 0.000000e+00
2.500000e+01 8.750000e+00 0.000000e+00
2.525000e+01 8.500000e+00 0.000000e+00
2.450000e+01 8.750000e+00 0.000000e+00
2.475000e+01 8.500000e+00 0.000000e+00
2.400000e+01 8.750000e+00 0.000000e+00
2.425000e+01 8.500000e+00 0.000000e+00
2.350000e+01 8.750000e+00 0.000000e+00
2.375000e+01 8.500000e+00 0.000000e+00
2.300000e+01 8.750000e+00 0.000000e+00
2.325000e+01 8.500000e+00 0.000000e+00
2.250000e+01 8.750000e+00 0.000000e+00
2.275000e+01 8.500000e+00 0.000000e+00
2.200000e+01 8.750000e+00 0.000000e+00
2.225000e+01 8.500000e+00 0.000000e+00
2.150000e+01 8.750000e+00 0.000000e+00
2.175000e+01 8.500000e+00 0.000000e+00
2.100000e+01 8.750000e+00 0.000000e+00
2.125000e+01 8.500000e+00 0.000000e+00
2.050000e+01 8.750000e+00 0.000000e+00
2.075000e+01 8.500000e+00 0.000000e+00
2.000000e+01 8.750000e+00 0.000000e+00
2.025000e+01 8.500000e+00 0.000000e+00
1.950000e+01 8.750000e+00 0.000000e+00
1.975000e+01 8.500000e+00 0.000000e+00
1.900000e+01 8.750000e+00 0.000000e+00
1.925000e+01 8.500000e+00 0.000000e+00
1.850000e+01 8.750000e+00 0.000000e+00
1.875000e+01 8.500000e+00 0.000000e+00
1.800000e+01 8.750000e+00 0.000000e+00
1.825000e+01 8.500000e+00 0.000000e+00
1.750000e+01 8.750000e+00 0.000000e+00
1.775000e+01 8.500000e+00 0.000000e+00
1.700000e+01 8.750000e+00 0.000000e+00
1.725000e+01 8.500000e+00 0.000000e+00
1.650000e+01 8.750000e+00 0.000000e+00
1.675000e+01 8.500000e+00 0.000000e+00
1.600000e+01 8.750000e+00 0.000000e+00
1.625000e+01 8.500000e+00 0.000000e+00
1.550000e+01 8.750000e+00 0.000000e+00
1.575000e+01 8.500000e+00 0.000000e+00
1.500000e+01 8.750000e+00 0.000000e+00
1.525000e+01 8.500000e+00 0.000000e+00
2.950000e+01 8.250000e+00 0.000000e+00
2.975000e+01 8.000000e+00 0.000000e+00
3.000000e+01 8.250000e+00 0.000000e+00
2.900000e+01 8.250000e+00 0.000000e+00
2.925000e+01 8.000000e+00 0.000000e+00
2.850000e+01 8.250000e+00 0.000000e+00
2.875000e+01 8.000000e+00 0.000000e+00
2.800000e+01 8.250000e+00 0.000000e+00
2.825000e+01 8.000000e+00 0.000000e+00
2.750000e+01 8.250000e+00 0.000000e+00
2.775000e+01 8.000000e+00 0.000000e+00
2.700000e+01 8.250000e+00 0.000000e+00
2.725000e+01 8.000000e+00 0.000000e+00
2.650000e+01 8.250000e+00 0.000000e+00
2.675000e+01 8.000000e+00 0.000000e+00
2.600000e+01 8.250000e+00 0.000000e+00
2.625000e+01 8.000000e+00 0.000000e+00
2.550000e+01 8.250000e+00 0.000000e+00
2.575000e+01 8.000000e+00 0.000000e+00
2.500000e+01 8.250000e+00 0.000000e+00
2.525000e+01 8.000000e+00 0.000000e+00
2.450000e+01 8.250000e+00 0.000000e+00
2.475000e+01 8.000000e+00 0.000000e+00
2.400000e+01 8.250000e+00 0.000000e+00
2.425000e+01 8.000000e+00 0.000000e+00
2.350000e+01 8.250000e+00 0.000000e+00
2.375000e+01 8.000000e+00 0.000000e+00
2.300000e+01 8.250000e+00 0.000000e+00
2.325000e+01 8.000000e+00 0.000000e+00
2.250000e+01 8.250000e+00 0.000000e+00
2.275000e+01 8.000000e+00 0.000000e+00
2.200000e+01 8.250000e+00 0.000000e+00
2.225000e+01 8.000000e+00 0.000000e+00
2.150000e+01 8.250000e+00 0.000000e+00
2.175000e+01 8.000000e+00 0.000000e+00
2.100000e+01 8.250000e+00 0.000000e+00
2.125000e+01 8.000000e+00 0.000000e+00
2.050000e+01 8.250000e+00 0.000000e+00
2.075000e+01 8.000000e+00 0.000000e+00
2.000000e+01 8.250000e+00 0.000000e+00
2.025000e+01 8.000000e+00 0.000000e+00
1.950000e+01 8.250000e+00 0.000000e+00
1.975000e+01 8.000000e+00 0.000000e+00
1.900000e+01 8.250000e+00 0.000000e+00
1.925000e+01 8.000000e+00 0.000000e+00
1.850000e+01 8.250000e+00 0.000000e+00
1.875000e+01 8.000000e+00 0.000000e+00
1.800000e+01 8.250000e+00 0.000000e+00
1.825000e+01 8.000000e+00 0.000000e+00
1.750000e+01 8.250000e+00 0.000000e+00
1.775000e+01 8.000000e+00 0.000000e+00
1.700000e+01 8.250000e+00 0.000000e+00
1.725000e+01 8.000000e+00 0.000000e+00
1.650000e+01 8.250000e+00 0.000000e+00
1.675000e+01 8.000000e+00 0.000000e+00
1.600000e+01 8.250000e+00 0.000000e+00
1.625000e+01 8.000000e+00 0.000000e+00
1.550000e+01 8.250000e+00 0.000000e+00
1.575000e+01 8.000000e+00 0.000000e+00
1.500000e+01 8.250000e+00 0.000000e+00
1.525000e+01 8.000000e+00 0.000000e+00
2.950000e+01 7.750000e+00 0.000000e+00
2.975000e+01 7.500000e+00 0.000000e+00
3.000000e+01 7.750000e+00 0.000000e+00
2.900000e+01 7.750000e+00 0.000000e+00
2.925000e+01 7.500000e+00 0.000000e+00
2.850000e+01 7.750000e+00 0.000000e+00
2.875000e+01 7.500000e+00 0.000000e+00
2.800000e+01 7.750000e+00 0.000000e+00
2.825000e+01 7.500000e+00 0.000000e+00
2.750000e+01 7.750000e+00 0.000000e+00
2.775000e+01 7.500000e+00 0.000000e+00
2.700000e+01 7.750000e+00 0.000000e+00
2.725000e+01 7.500000e+00 0.000000e+00
2.650000e+01 7.750000e+00 0.000000e+00
2.675000e+01 7.500000e+00 0.000000e+00
2.600000e+01 7.750000e+00 0.000000e+00
2.625000e+01 7.500000e+00 0.000000e+00
2.550000e+01 7.750000e+00 0.000000e+00
2.575000e+01 7.500000e+00 0.000000e+00
2.500000e+01 7.750000e+00 0.000000e+00
2.525000e+01 7.500000e+00 0.000000e+00
2.450000e+01 7.750000e+00 0.000000e+00
2.475000e+01 7.500000e+00 0.000000e+00
2.400000e+01 7.750000e+00 0.000000e+00
2.425000e+01 7.500000e+00 0.000000e+00
2.350000e+01 7.750000e+00 0.000000e+00
2.375000e+01 7.500000e+00 0.000000e+00
2.300000e+01 7.750000e+00 0.000000e+00
2.325000e+01 7.500000e+00 0.000000e+00
2.250000e+01 7.750000e+00 0.000000e+00
2.275000e+01 7.500000e+00 0.000000e+00
2.200000e+01 7.750000e+00 0.000000e+00
2.225000e+01 7.500000e+00 0.000000e+00
2.150000e+01 7.750000e+00 0.000000e+00
2.175000e+01 7.500000e+00 0.000000e+00
2.100000e+01 7.750000e+00 0.000000e+00
2.125000e+01 7.500000e+00 0.000000e+00
2.050000e+01 7.750000e+00 0.000000e+00
2.075000e+01 7.500000e+00 0.000000e+00
2.000000e+01 7.750000e+00 0.000000e+00
2.025000e+01 7.500000e+00 0.000000e+00
1.950000e+01 7.750000e+00 0.000000e+00
1.975000e+01 7.500000e+00 0.000000e+00
1.900000e+01 7.750000e+00 0.000000e+00
1.925000e+01 7.500000e+00 0.000000e+00
1.850000e+01 7.750000e+00 0.000000e+00
1.875000e+01 7.500000e+00 0.000000e+00
1.800000e+01 7.750000e+00 0.000000e+00
1.825000e+01 7.500000e+00 0.000000e+00
1.750000e+01 7.750000e+00 0.000000e+00
1.775000e+01 7.500000e+00 0.000000e+00
1.700000e+01 7.750000e+00 0.000000e+00
1.725000e+01 7.500000e+00 0.000000e+00
1.650000e+01 7.750000e+00 0.000000e+00
1.675000e+01 7.500000e+00 0.000000e+00
1.600000e+01 7.750000e+00 0.000000e+00
1.625000e+01 7.500000e+00 0.000000e+00
1.550000e+01 7.750000e+00 0.000000e+00
1.575000e+01 7.500000e+00 0.000000e+00
1.500000e+01 7.750000e+00 0.000000e+00
1.525000e+01 7.500000e+00 0.000000e+00
2.950000e+01 7.250000e+00 0.000000e+00
2.975000e+01 7.000000e+00 0.000000e+00
3.000000e+01 7.250000e+00 0.000000e+00
2.900000e+01 7.250000e+00 0.000000e+00
2.925000e+01 7.000000e+00 0.000000e+00
2.850000e+01 7.250000e+00 0.000000e+00
2.875000e+01 7.000000e+00 0.000000e+00
2.800000e+01 7.250000e+00 0.000000e+00
2.825000e+01 7.000000e+00 0.000000e+00
2.750000e+01 7.250000e+00 0.000000e+00
2.775000e+01 7.000000e+00 0.000000e+00
2.700000e+01 7.250000e+00 0.000000e+00
2.725000e+01 7.000000e+00 0.000000e+00
2.650000e+01 7.250000e+00 0.000000e+00
2.675000e+01 7.000000e+00 0.000000e+00
2.600000e+01 7.250000e+00 0.000000e+00
2.625000e+01 7.000000e+00 0.000000e+00
2.550000e+01 7.250000e+00 0.000000e+00
2.575000e+01 7.000000e+00 0.000000e+00
2.500000e+01 7.250000e+00 0.000000e+00
2.525000e+01 7.000000e+00 0.000000e+00
2.450000e+01 7.250000e+00 0.000000e+00
2.475000e+01 7.000000e+00 0.000000e+00
2.400000e+01 7.250000e+00 0.000000e+00
2.425000e+01 7.000000e+00 0.000000e+00
2.350000e+01 7.250000e+00 0.000000e+00
2.375000e+01 7.000000e+00 0.000000e+00
2.300000e+01 7.250000e+00 0.000000e+00
2.325000e+01 7.000000e+00 0.000000e+00
2.250000e+01 7.250000e+00 0.000000e+00
2.275000e+01 7.000000e+00 0.000000e+00
2.200000e+01 7.250000e+00 0.000000e+00
2.225000e+01 7.000000e+00 0.000000e+00
2.150000e+01 7.250000e+00 0.000000e+00
2.175000e+01 7.000000e+00 0.000000e+00
2.100000e+01 7.250000e+00 0.000000e+00
2.125000e+01 7.000000e+00 0.000000e+00
2.050000e+01 7.250000e+00 0.000000e+00
2.075000e+01 7.000000e+00 0.000000e+00
2.000000e+01 7.250000e+00 0.000000e+00
2.025000e+01 7.000000e+00 0.000000e+00
1.950000e+01 7.250000e+00 0.000000e+00
1.975000e+01 7.000000e+00 0.000000e+00
1.900000e+01 7.250000e+00 0.000000e+00
1.925000e+01 7.000000e+00 0.000000e+00
1.850000e+01 7.250000e+00 0.000000e+00
1.875000e+01 7.000000e+00 0.000000e+00
1.800000e+01 7.250000e+00 0.000000e+00
1.825000e+01 7.000000e+00 0.000000e+00
1.750000e+01 7.250000e+00 0.000000e+00
1.775000e+01 7.000000e+00 0.000000e+00
1.700000e+01 7.250000e+00 0.000000e+00
1.725000e+01 7.000000e+00 0.000000e+00
1.650000e+01 7.250000e+00 0.000000e+00
1.675000e+01 7.000000e+00 0.000000e+00
1.600000e+01 7.250000e+00 0.000000e+00
1.625000e+01 7.000000e+00 0.000000e+00
1.550000e+01 7.250000e+00 0.000000e+00
1.575000e+01 7.000000e+00 0.000000e+00
1.500000e+01 7.250000e+00 0.000000e+00
1.525000e+01 7.000000e+00 0.000000e+00
2.950000e+01 6.750000e+00 0.000000e+00
2.975000e+01 6.500000e+00 0.000000e+00
3.000000e+01 6.750000e+00 0.000000e+00
2.900000e+01 6.750000e+00 0.000000e+00
2.925000e+01 6.500000e+00 0.000000e+00
2.850000e+01 6.750000e+00 0.000000e+00
2.875000e+01 6.500000e+00 0.000000e+00
2.800000e+01 6.750000e+00 0.000000e+00
2.825000e+01 6.500000e+00 0.000000e+00
2.750000e+01 6.750000e+00 0.000000e+00
2.775000e+01 6.500000e+00 0.000000e+00
2.700000e+01 6.750000e+00 0.000000e+00
2.725000e+01 6.500000e+00 0.000000e+00
2.650000e+01 6.750000e+00 0.000000e+00
2.675000e+01 6.500000e+00 0.000000e+00
2.600000e+01 6.750000e+00 0.000000e+00
2.625000e+01 6.500000e+00 0.000000e+00
2.550000e+01 6.750000e+00 0.000000e+00
2.575000e+01 6.500000e+00 0.000000e+00
2.500000e+01 6.750000e+00 0.000000e+00
2.525000e+01 6.500000e+00 0.000000e+00
2.450000e+01 6.750000e+00 0.000000e+00
2.475000e+01 6.500000e+00 0.000000e+00
2.400000e+01 6.750000e+00 0.000000e+00
2.425000e+01 6.500000e+00 0.000000e+00
2.350000e+01 6.750000e+00 0.000000e+00
2.375000e+01 6.500000e+00 0.000000e+00
2.300000e+01 6.750000e+00 0.000000e+00
2.325000e+01 6.500000e+00 0.000000e+00
2.250000e+01 6.750000e+00 0.000000e+00
2.275000e+01 6.500000e+00 0.000000e+00
2.200000e+01 6.750000e+00 0.000000e+00
2.225000e+01 6.500000e+00 0.000000e+00
2.150000e+01 6.750000e+00 0.000000e+00
2.175000e+01 6.500000e+00 0.000000e+00
2.100000e+01 6.750000e+00 0.000000e+00
2.125000e+01 6.500000e+00 0.000000e+00
2.050000e+01 6.750000e+00 0.000000e+00
2.075000e+01 6.500000e+00 0.000000e+00
2.000000e+01 6.750000e+00 0.000000e+00
2.025000e+01 6.500000e+00 0.000000e+00
1.950000e+01 6.750000e+00 0.000000e+00
1.975000e+01 6.500000e+00 0.000000e+00
1.900000e+01 6.750000e+00 0.000000e+00
1.925000e+01 6.500000e+00 0.000000e+00
1.850000e+01 6.750000e+00 0.000000e+00
1.875000e+01 6.500000e+00 0.000000e+00
1.800000e+01 6.750000e+00 0.000000e+00
1.825000e+01 6.500000e+00 0.000000e+00
1.750000e+01 6.750000e+00 0.000000e+00
1.775000e+01 6.500000e+00 0.000000e+00
1.700000e+01 6.750000e+00 0.000000e+00
1.725000e+01 6.500000e+00 0.000000e+00
1.650000e+01 6.750000e+00 0.000000e+00
1.675000e+01 6.500000e+00 0.000000e+00
1.600000e+01 6.750000e+00 0.000000e+00
1.625000e+01 6.500000e+00 0.000000e+00
1.550000e+01 6.750000e+00 0.000000e+00
1.575000e+01 6.500000e+00 0.000000e+00
1.500000e+01 6.750000e+00 0.000000e+00
1.525000e+01 6.500000e+00 0.000000e+00
2.950000e+01 6.250000e+00 0.000000e+00
2.975000e+01 6.000000e+00 0.000000e+00
3.000000e+01 6.250000e+00 0.000000e+00
2.900000e+01 6.250000e+00 0.000000e+00
2.925000e+01 6.000000e+00 0.000000e+00
2.850000e+01 6.250000e+00 0.000000e+00
2.875000e+01 6.000000e+00 0.000000e+00
2.800000e+01 6.250000e+00 0.000000e+00
2.825000e+01 6.000000e+00 0.000000e+00
2.750000e+01 6.250000e+00 0.000000e+00
2.775000e+01 6.000000e+00 0.000000e+00
2.700000e+01 6.250000e+00 0.000000e+00
2.725000e+01 6.000000e+00 0.000000e+00
2.650000e+01 6.250000e+00 0.000000e+00
2.675000e+01 6.000000e+00 0.000000e+00
2.600000e+01 6.250000e+00 0.000000e+00
2.625000e+01 6.000000e+00 0.000000e+00
2.550000e+01 6.250000e+00 0.000000e+00
2.575000e+01 6.000000e+00 0.000000e+00
2.500000e+01 6.250000e+00 0.000000e+00
2.525000e+01 6.000000e+00 0.000000e+00
2.450000e+01 6.250000e+00 0.000000e+00
2.475000e+01 6.000000e+00 0.000000e+00
2.400000e+01 6.250000e+00 0.000000e+00
2.425000e+01 6.000000e+00 0.000000e+00
2.350000e+01 6.250000e+00 0.000000e+00
2.375000e+01 6.000000e+00 0.000000e+00
2.300000e+01 6.250000e+00 0.000000e+00
2.325000e+01 6.000000e+00 0.000000e+00
2.250000e+01 6.250000e+00 0.000000e+00
2.275000e+01 6.000000e+00 0.000000e+00
2.200000e+01 6.250000e+00 0.000000e+00
2.225000e+01 6.000000e+00 0.000000e+00
2.150000e+01 6.250000e+00 0.000000e+00
2.175000e+01 6.000000e+00 0.000000e+00
2.100000e+01 6.250000e+00 0.000000e+00
2.125000e+01 6.000000e+00 0.000000e+00
2.050000e+01 6.250000e+00 0.000000e+00
2.075000e+01 6.000000e+00 0.000000e+00
2.000000e+01 6.250000e+00 0.000000e+00
2.025000e+01 6.000000e+00 0.000000e+00
1.950000e+01 6.250000e+00 0.000000e+00
1.975000e+01 6.000000e+00 0.000000e+00
1.900000e+01 6.250000e+00 0.000000e+00
1.925000e+01 6.000000e+00 0.000000e+00
1.850000e+01 6.250000e+00 0.000000e+00
1.875000e+01 6.000000e+00 0.000000e+00
1.800000e+01 6.250000e+00 0.000000e+00
1.825000e+01 6.000000e+00 0.000000e+00
1.750000e+01 6.250000e+00 0.000000e+00
1.775000e+01 6.000000e+00 0.000000e+00
1.700000e+01 6.250000e+00 0.000000e+00
1.725000e+01 6.000000e+00 0.000000e+00
1.650000e+01 6.250000e+00 0.000000e+00
1.675000e+01 6.000000e+00 0.000000e+00
1.600000e+01 6.250000e+00 0.000000e+00
1.625000e+01 6.000000e+00 0.000000e+00
1.550000e+01 6.250000e+00 0.000000e+00
1.575000e+01 6.000000e+00 0.000000e+00
1.500000e+01 6.250000e+00 0.000000e+00
1.525000e+01 6.000000e+00 0.000000e+00
2.950000e+01 5.750000e+00 0.000000e+00
2.975000e+01 5.500000e+00 0.000000e+00
3.000000e+01 5.750000e+00 0.000000e+00
2.900000e+01 5.750000e+00 0.000000e+00
2.925000e+01 5.500000e+00 0.000000e+00
2.850000e+01 5.750000e+00 0.000000e+00
2.875000e+01 5.500000e+00 0.000000e+00
2.800000e+01 5.750000e+00 0.000000e+00
2.825000e+01 5.500000e+00 0.000000e+00
2.750000e+01 5.750000e+00 0.000000e+00
2.775000e+01 5.500000e+00 0.000000e+00
2.700000e+01 5.750000e+00 0.000000e+00
2.725000e+01 5.500000e+00 0.000000e+00
2.650000e+01 5.750000e+00 0.000000e+00
2.675000e+01 5.500000e+00 0.000000e+00
2.600000e+01 5.750000e+00 0.000000e+00
2.625000e+01 5.500000e+00 0.000000e+00
2.550000e+01 5.750000e+00 0.000000e+00
2.575000e+01 5.500000e+00 0.000000e+00
2.500000e+01 5.750000e+00 0.000000e+00
2.525000e+01 5.500000e+00 0.000000e+00
2.450000e+01 5.750000e+00 0.000000e+00
2.475000e+01 5.500000e+00 0.000000e+00
2.400000e+01 5.750000e+00 0.000000e+00
2.425000e+01 5.500000e+00 0.000000e+00
2.350000e+01 5.750000e+00 0.000000e+00
2.375000e+01 5.500000e+00 0.000000e+00
2.300000e+01 5.750000e+00 0.000000e+00
2.325000e+01 5.500000e+00 0.000000e+00
2.250000e+01 5.750000e+00 0.000000e+00
2.275000e+01 5.500000e+00 0.000000e+00
2.200000e+01 5.750000e+00 0.000000e+00
2.225000e+01 5.500000e+00 0.000000e+00
2.150000e+01 5.750000e+00 0.000000e+00
2.175000e+01 5.500000e+00 0.000000e+00
2.100000e+01 5.750000e+00 0.000000e+00
2.125000e+01 5.500000e+00 0.000000e+00
2.050000e+01 5.750000e+00 0.000000e+00
2.075000e+01 5.500000e+00 0.000000e+00
2.000000e+01 5.750000e+00 0.000000e+00
2.025000e+01 5.500000e+00 0.000000e+00
1.950000e+01 5.750000e+00 0.000000e+00
1.975000e+01 5.500000e+00 0.000000e+00
1.900000e+01 5.750000e+00 0.000000e+00
1.925000e+01 5.500000e+00 0.000000e+00
1.850000e+01 5.750000e+00 0.000000e+00
1.875000e+01 5.500000e+00 0.000000e+00
1.800000e+01 5.750000e+00 0.000000e+00
1.825000e+01 5.500000e+00 0.000000e+00
1.750000e+01 5.750000e+00 0.000000e+00
1.775000e+01 5.500000e+00 0.000000e+00
1.700000e+01 5.750000e+00 0.000000e+00
1.725000e+01 5.500000e+00 0.000000e+00
1.650000e+01 5.750000e+00 0.000000e+00
1.675000e+01 5.500000e+00 0.000000e+00
1.600000e+01 5.750000e+00 0.000000e+00
1.625000e+01 5.500000e+00 0.000000e+00
1.550000e+01 5.750000e+00 0.000000e+00
1.575000e+01 5.500000e+00 0.000000e+00
1.500000e+01 5.750000e+00 0.000000e+00
1.525000e+01 5.500000e+00 0.000000e+00
2.950000e+01 5.250000e+00 0.000000e+00
2.975000e+01 5.000000e+00 0.000000e+00
3.000000e+01 5.250000e+00 0.000000e+00
2.900000e+01 5.250000e+00 0.000000e+00
2.925000e+01 5.000000e+00 0.000000e+00
2.850000e+01 5.250000e+00 0.000000e+00
2.875000e+01 5.000000e+00 0.000000e+00
2.800000e+01 5.250000e+00 0.000000e+00
2.825000e+01 5.000000e+00 0.000000e+00
2.750000e+01 5.250000e+00 0.000000e+00
2.775000e+01 5.000000e+00 0.000000e+00
2.700000e+01 5.250000e+00 0.000000e+00
2.725000e+01 5.000000e+00 0.000000e+00
2.650000e+01 5.250000e+00 0.000000e+00
2.675000e+01 5.000000e+00 0.000000e+00
2.600000e+01 5.250000e+00 0.000000e+00
2.625000e+01 5.000000e+00 0.000000e+00
2.550000e+01 5.250000e+00 0.000000e+00
2.575000e+01 5.000000e+00 0.000000e+00
2.500000e+01 5.250000e+00 0.000000e+00
2.525000e+01 5.000000e+00 0.000000e+00
2.450000e+01 5.250000e+00 0.000000e+00
2.475000e+01 5.000000e+00 0.000000e+00
2.400000e+01 5.250000e+00 0.000000e+00
2.425000e+01 5.000000e+00 0.000000e+00
2.350000e+01 5.250000e+00 0.000000e+00
2.375000e+01 5.000000e+00 0.000000e+00
2.300000e+01 5.250000e+00 0.000000e+00
2.325000e+01 5.000000e+00 0.000000e+00
2.250000e+01 5.250000e+00 0.000000e+00
2.275000e+01 5.000000e+00 0.000000e+00
2.200000e+01 5.250000e+00 0.000000e+00
2.225000e+01 5.000000e+00 0.000000e+00
2.150000e+01 5.250000e+00 0.000000e+00
2.175000e+01 5.000000e+00 0.000000e+00
2.100000e+01 5.250000e+00 0.000000e+00
2.125000e+01 5.000000e+00 0.000000e+00
2.050000e+01 5.250000e+00 0.000000e+00
2.075000e+01 5.000000e+00 0.000000e+00
2.000000e+01 5.250000e+00 0.000000e+00
2.025000e+01 5.000000e+00 0.000000e+00
1.950000e+01 5.250000e+00 0.000000e+00
1.975000e+01 5.000000e+00 0.000000e+00
1.900000e+01 5.250000e+00 0.000000e+00
1.925000e+01 5.000000e+00 0.000000e+00
1.850000e+01 5.250000e+00 0.000000e+00
1.875000e+01 5.000000e+00 0.000000e+00
1.800000e+01 5.250000e+00 0.000000e+00
1.825000e+01 5.000000e+00 0.000000e+00
1.750000e+01 5.250000e+00 0.000000e+00
1.775000e+01 5.000000e+00 0.000000e+00
1.700000e+01 5.250000e+00 0.000000e+00
1.725000e+01 5.000000e+00 0.000000e+00
1.650000e+01 5.250000e+00 0.000000e+00
1.675000e+01 5.000000e+00 0.000000e+00
1.600000e+01 5.250000e+00 0.000000e+00
1.625000e+01 5.000000e+00 0.000000e+00
1.550000e+01 5.250000e+00 0.000000e+00
1.575000e+01 5.000000e+00 0.000000e+00
1.500000e+01 5.250000e+00 0.000000e+00
1.525000e+01 5.000000e+00 0.000000e+00
2.950000e+01 4.750000e+00 0.000000e+00
2.975000e+01 4.500000e+00 0.000000e+00
3.000000e+01 4.750000e+00 0.000000e+00
2.900000e+01 4.750000e+00 0.000000e+00
2.925000e+01 4.500000e+00 0.000000e+00
2.850000e+01 4.750000e+00 0.000000e+00
2.875000e+01 4.500000e+00 0.000000e+00
2.800000e+01 4.750000e+00 0.000000e+00
2.825000e+01 4.500000e+00 0.000000e+00
2.750000e+01 4.750000e+00 0.000000e+00
2.775000e+01 4.500000e+00 0.000000e+00
2.700000e+01 4.750000e+00 0.000000e+00
2.725000e+01 4.500000e+00 0.000000e+00
2.650000e+01 4.750000e+00 0.000000e+00
2.675000e+01 4.500000e+00 0.000000e+00
2.600000e+01 4.750000e+00 0.000000e+00
2.625000e+01 4.500000e+00 0.000000e+00
2.550000e+01 4.750000e+00 0.000000e+00
2.575000e+01 4.500000e+00 0.000000e+00
2.500000e+01 4.750000e+00 0.000000e+00
2.525000e+01 4.500000e+00 0.000000e+00
2.450000e+01 4.750000e+00 0.000000e+00
2.475000e+01 4.500000e+00 0.000000e+00
2.400000e+01 4.750000e+00 0.000000e+00
2.425000e+01 4.500000e+00 0.000000e+00
2.350000e+01 4.750000e+00 0.000000e+00
2.375000e+01 4.500000e+00 0.000000e+00
2.300000e+01 4.750000e+00 0.000000e+00
2.325000e+01 4.500000e+00 0.000000e+00
2.250000e+01 4.750000e+00 0.000000e+00
2.275000e+01 4.500000e+00 0.000000e+00
2.200000e+01 4.750000e+00 0.000000e+00
2.225000e+01 4.500000e+00 0.000000e+00
2.150000e+01 4.750000e+00 0.000000e+00
2.175000e+01 4.500000e+00 0.000000e+00
2.100000e+01 4.750000e+00 0.000000e+00
2.125000e+01 4.500000e+00 0.000000e+00
2.050000e+01 4.750000e+00 0.000000e+00
2.075000e+01 4.500000e+00 0.000000e+00
2.000000e+01 4.750000e+00 0.000000e+00
2.025000e+01 4.500000e+00 0.000000e+00
1.950000e+01 4.750000e+00 0.000000e+00
1.975000e+01 4.500000e+00 0.000000e+00
1.900000e+01 4.750000e+00 0.000000e+00
1.925000e+01 4.500000e+00 0.000000e+00
1.850000e+01 4.750000e+00 0.000000e+00
1.875000e+01 4.500000e+00 0.000000e+00
1.800000e+01 4.750000e+00 0.000000e+00
1.825000e+01 4.500000e+00 0.000000e+00
1.750000e+01 4.750000e+00 0.000000e+00
1.775000e+01 4.500000e+00 0.000000e+00
1.700000e+01 4.750000e+00 0.000000e+00
1.725000e+01 4.500000e+00 0.000000e+00
1.650000e+01 4.750000e+00 0.000000e+00
1.675000e+01 4.500000e+00 0.000000e+00
1.600000e+01 4.750000e+00 0.000000e+00
1.625000e+01 4.500000e+00 0.000000e+00
1.550000e+01 4.750000e+00 0.000000e+00
1.575000e+01 4.500000e+00 0.000000e+00
1.500000e+01 4.750000e+00 0.000000e+00
1.525000e+01 4.500000e+00 0.000000e+00
2.950000e+01 4.250000e+00 0.000000e+00
2.975000e+01 4.000000e+00 0.000000e+00
3.000000e+01 4.250000e+00 0.000000e+00
2.900000e+01 4.250000e+00 0.000000e+00
2.925000e+01 4.000000e+00 0.000000e+00
2.850000e+01 4.250000e+00 0.000000e+00
2.875000e+01 4.000000e+00 0.000000e+00
2.800000e+01 4.250000e+00 0.000000e+00
2.825000e+01 4.000000e+00 0.000000e+00
2.750000e+01 4.250000e+00 0.000000e+00
2.775000e+01 4.000000e+00 0.000000e+00
2.700000e+01 4.250000e+00 0.000000e+00
2.725000e+01 4.000000e+00 0.000000e+00
2.650000e+01 4.250000e+00 0.000000e+00
2.675000e+01 4.000000e+00 0.000000e+00
2.600000e+01 4.250000e+00 0.000000e+00
2.625000e+01 4.000000e+00 0.000000e+00
2.550000e+01 4.250000e+00 0.000000e+00
2.575000e+01 4.000000e+00 0.000000e+00
2.500000e+01 4.250000e+00 0.000000e+00
2.525000e+01 4.000000e+00 0.000000e+00
2.450000e+01 4.250000e+00 0.000000e+00
2.475000e+01 4.000000e+00 0.000000e+00
2.400000e+01 4.250000e+00 0.000000e+00
2.425000e+01 4.000000e+00 0.000000e+00
2.350000e+01 4.250000e+00 0.000000e+00
2.375000e+01 4.000000e+00 0.000000e+00
2.300000e+01 4.250000e+00 0.000000e+00
2.325000e+01 4.000000e+00 0.000000e+00
2.250000e+01 4.250000e+00 0.000000e+00
2.275000e+01 4.000000e+00 0.000000e+00
2.200000e+01 4.250000e+00 0.000000e+00
2.225000e+01 4.000000e+00 0.000000e+00
2.150000e+01 4.250000e+00 0.000000e+00
2.175000e+01 4.000000e+00 0.000000e+00
2.100000e+01 4.250000e+00 0.000000e+00
2.125000e+01 4.000000e+00 0.000000e+00
2.050000e+01 4.250000e+00 0.000000e+00
2.075000e+01 4.000000e+00 0.000000e+00
2.000000e+01 4.250000e+00 0.000000e+00
2.025000e+01 4.000000e+00 0.000000e+00
1.950000e+01 4.250000e+00 0.000000e+00
1.975000e+01 4.000000e+00 0.000000e+00
1.900000e+01 4.250000e+00 0.000000e+00
1.925000e+01 4.000000e+00 0.000000e+00
1.850000e+01 4.250000e+00 0.000000e+00
1.875000e+01 4.000000e+00 0.000000e+00
1.800000e+01 4.250000e+00 0.000000e+00
1.825000e+01 4.000000e+00 0.000000e+00
1.750000e+01 4.250000e+00 0.000000e+00
1.775000e+01 4.000000e+00 0.000000e+00
1.700000e+01 4.250000e+00 0.000000e+00
1.725000e+01 4.000000e+00 0.000000e+00
1.650000e+01 4.250000e+00 0.000000e+00
1.675000e+01 4.000000e+00 0.000000e+00
1.600000e+01 4.250000e+00 0.000000e+00
1.625000e+01 4.000000e+00 0.000000e+00
1.550000e+01 4.250000e+00 0.000000e+00
1.575000e+01 4.000000e+00 0.000000e+00
1.500000e+01 4.250000e+00 0.000000e+00
1.525000e+01 4.000000e+00 0.000000e+00
2.950000e+01 3.750000e+00 0.000000e+00
2.975000e+01 3.500000e+00 0.000000e+00
3.000000e+01 3.750000e+00 0.000000e+00
2.900000e+01 3.750000e+00 0.000000e+00
2.925000e+01 3.500000e+00 0.000000e+00
2.850000e+01 3.750000e+00 0.000000e+00
2.875000e+01 3.500000e+00 0.000000e+00
2.800000e+01 3.750000e+00 0.000000e+00
2.825000e+01 3.500000e+00 0.000000e+00
2.750000e+01 3.750000e+00 0.000000e+00
2.775000e+01 3.500000e+00 0.000000e+00
2.700000e+01 3.750000e+00 0.000000e+00
2.725000e+01 3.500000e+00 0.000000e+00
2.650000e+01 3.750000e+00 0.000000e+00
2.675000e+01 3.500000e+00 0.000000e+00
2.600000e+01 3.750000e+00 0.000000e+00
2.625000e+01 3.500000e+00 0.000000e+00
2.550000e+01 3.750000e+00 0.000000e+00
2.575000e+01 3.500000e+00 0.000000e+00
2.500000e+01 3.750000e+00 0.000000e+00
2.525000e+01 3.500000e+00 0.000000e+00
2.450000e+01 3.750000e+00 0.000000e+00
2.475000e+01 3.500000e+00 0.000000e+00
2.400000e+01 3.750000e+00 0.000000e+00
2.425000e+01 3.500000e+00 0.000000e+00
2.350000e+01 3.750000e+00 0.000000e+00
2.375000e+01 3.500000e+00 0.000000e+00
2.300000e+01 3.750000e+00 0.000000e+00
2.325000e+01 3.500000e+00 0.000000e+00
2.250000e+01 3.750000e+00 0.000000e+00
2.275000e+01 3.500000e+00 0.000000e+00
2.200000e+01 3.750000e+00 0.000000e+00
2.225000e+01 3.500000e+00 0.000000e+00
2.150000e+01 3.750000e+00 0.000000e+00
2.175000e+01 3.500000e+00 0.000000e+00
2.100000e+01 3.750000e+00 0.000000e+00
2.125000e+01 3.500000e+00 0.000000e+00
2.050000e+01 3.750000e+00 0.000000e+00
2.075000e+01 3.500000e+00 0.000000e+00
2.000000e+01 3.750000e+00 0.000000e+00
2.025000e+01 3.500000e+00 0.000000e+00
1.950000e+01 3.750000e+00 0.000000e+00
1.975000e+01 3.500000e+00 0.000000e+00
1.900000e+01 3.750000e+00 0.000000e+00
1.925000e+01 3.500000e+00 0.000000e+00
1.850000e+01 3.750000e+00 0.000000e+00
1.875000e+01 3.500000e+00 0.000000e+00
1.800000e+01 3.750000e+00 0.000000e+00
1.825000e+01 3.500000e+00 0.000000e+00
1.750000e+01 3.750000e+00 0.000000e+00
1.775000e+01 3.500000e+00 0.000000e+00
1.700000e+01 3.750000e+00 0.000000e+00
1.725000e+01 3.500000e+00 0.000000e+00
1.650000e+01 3.750000e+00 0.000000e+00
1.675000e+01 3.500000e+00 0.000000e+00
1.600000e+01 3.750000e+00 0.000000e+00
1.625000e+01 3.500000e+00 0.000000e+00
1.550000e+01 3.750000e+00 0.000000e+00
1.575000e+01 3.500000e+00 0.000000e+00
1.500000e+01 3.750000e+00 0.000000e+00
1.525000e+01 3.500000e+00 0.000000e+00
2.950000e+01 3.250000e+00 0.000000e+00
2.975000e+01 3.000000e+00 0.000000e+00
3.000000e+01 3.250000e+00 0.000000e+00
2.900000e+01 3.250000e+00 0.000000e+00
2.925000e+01 3.000000e+00 0.000000e+00
2.850000e+01 3.250000e+00 0.000000e+00
2.875000e+01 3.000000e+00 0.000000e+00
2.800000e+01 3.250000e+00 0.000000e+00
2.825000e+01 3.000000e+00 0.000000e+00
2.750000e+01 3.250000e+00 0.000000e+00
2.775000e+01 3.000000e+00 0.000000e+00
2.700000e+01 3.250000e+00 0.000000e+00
2.725000e+01 3.000000e+00 0.000000e+00
2.650000e+01 3.250000e+00 0.000000e+00
2.675000e+01 3.000000e+00 0.000000e+00
2.600000e+01 3.250000e+00 0.000000e+00
2.625000e+01 3.000000e+00 0.000000e+00
2.550000e+01 3.250000e+00 0.000000e+00
2.575000e+01 3.000000e+00 0.000000e+00
2.500000e+01 3.250000e+00 0.000000e+00
2.525000e+01 3.000000e+00 0.000000e+00
2.450000e+01 3.250000e+00 0.000000e+00
2.475000e+01 3.000000e+00 0.000000e+00
2.400000e+01 3.250000e+00 0.000000e+00
2.425000e+01 3.000000e+00 0.000000e+00
2.350000e+01 3.250000e+00 0.000000e+00
2.375000e+01 3.000000e+00 0.000000e+00
2.300000e+01 3.250000e+00 0.000000e+00
2.325000e+01 3.000000e+00 0.000000e+00
2.250000e+01 3.250000e+00 0.000000e+00
2.275000e+01 3.000000e+00 0.000000e+00
2.200000e+01 3.250000e+00 0.000000e+00
2.225000e+01 3.000000e+00 0.000000e+00
2.150000e+01 3.250000e+00 0.000000e+00
2.175000e+01 3.000000e+00 0.000000e+00
2.100000e+01 3.250000e+00 0.000000e+00
2.125000e+01 3.000000e+00 0.000000e+00
2.050000e+01 3.250000e+00 0.000000e+00
2.075000e+01 3.000000e+00 0.000000e+00
2.000000e+01 3.250000e+00 0.000000e+00
2.025000e+01 3.000000e+00 0.000000e+00
1.950000e+01 3.250000e+00 0.000000e+00
1.975000e+01 3.000000e+00 0.000000e+00
1.900000e+01 3.250000e+00 0.000000e+00
1.925000e+01 3.000000e+00 0.000000e+00
1.850000e+01 3.250000e+00 0.000000e+00
1.875000e+01 3.000000e+00 0.000000e+00
1.800000e+01 3.250000e+00 0.000000e+00
1.825000e+01 3.000000e+00 0.000000e+00
1.750000e+01 3.250000e+00 0.000000e+00
1.775000e+01 3.000000e+00 0.000000e+00
1.700000e+01 3.250000e+00 0.000000e+00
1.725000e+01 3.000000e+00 0.000000e+00
1.650000e+01 3.250000e+00 0.000000e+00
1.675000e+01 3.000000e+00 0.000000e+00
1.600000e+01 3.250000e+00 0.000000e+00
1.625000e+01 3.000000e+00 0.000000e+00
1.550000e+01 3.250000e+00 0.000000e+00
1.575000e+01 3.000000e+00 0.000000e+00
1.500000e+01 3.250000e+00 0.000000e+00
1.525000e+01 3.000000e+00 0.000000e+00
2.950000e+01 2.750000e+00 0.000000e+00
2.975000e+01 2.500000e+00 0.000000e+00
3.000000e+01 2.750000e+00 0.000000e+00
2.900000e+01 2.750000e+00 0.000000e+00
2.925000e+01 2.500000e+00 0.000000e+00
2.850000e+01 2.750000e+00 0.000000e+00
2.875000e+01 2.500000e+00 0.000000e+00
2.800000e+01 2.750000e+00 0.000000e+00
2.825000e+01 2.500000e+00 0.000000e+00
2.750000e+01 2.750000e+00 0.000000e+00
2.775000e+01 2.500000e+00 0.000000e+00
2.700000e+01 2.750000e+00 0.000000e+00
2.725000e+01 2.500000e+00 0.000000e+00
2.650000e+01 2.750000e+00 0.000000e+00
2.675000e+01 2.500000e+00 0.000000e+00
2.600000e+01 2.750000e+00 0.000000e+00
2.625000e+01 2.500000e+00 0.000000e+00
2.550000e+01 2.750000e+00 0.000000e+00
2.575000e+01 2.500000e+00 0.000000e+00
2.500000e+01 2.750000e+00 0.000000e+00
2.525000e+01 2.500000e+00 0.000000e+00
2.450000e+01 2.750000e+00 0.000000e+00
2.475000e+01 2.500000e+00 0.000000e+00
2.400000e+01 2.750000e+00 0.000000e+00
2.425000e+01 2.500000e+00 0.000000e+00
2.350000e+01 2.750000e+00 0.000000e+00
2.375000e+01 2.500000e+00 0.000000e+00
2.300000e+01 2.750000e+00 0.000000e+00
2.325000e+01 2.500000e+00 0.000000e+00
2.250000e+01 2.750000e+00 0.000000e+00
2.275000e+01 2.500000e+00 0.000000e+00
2.200000e+01 2.750000e+00 0.000000e+00
2.225000e+01 2.500000e+00 0.000000e+00
2.150000e+01 2.750000e+00 0.000000e+00
2.175000e+01 2.500000e+00 0.000000e+00
2.100000e+01 2.750000e+00 0.000000e+00
2.125000e+01 2.500000e+00 0.000000e+00
2.050000e+01 2.750000e+00 0.000000e+00
2.075000e+01 2.500000e+00 0.000000e+00
2.000000e+01 2.750000e+00 0.000000e+00
2.025000e+01 2.500000e+00 0.000000e+00
1.950000e+01 2.750000e+00 0.000000e+00
1.975000e+01 2.500000e+00 0.000000e+00
1.900000e+01 2.750000e+00 0.000000e+00
1.925000e+01 2.500000e+00 0.000000e+00
1.850000e+01 2.750000e+00 0.000000e+00
1.875000e+01 2.500000e+00 0.000000e+00
1.800000e+01 2.750000e+00 0.000000e+00
1.825000e+01 2.500000e+00 0.000000e+00
1.750000e+01 2.750000e+00 0.000000e+00
1.775000e+01 2.500000e+00 0.000000e+00
1.700000e+01 2.750000e+00 0.000000e+00
1.725000e+01 2.500000e+00 0.000000e+00
1.650000e+01 2.750000e+00 0.000000e+00
1.675000e+01 2.500000e+00 0.000000e+00
1.600000e+01 2.750000e+00 0.000000e+00
1.625000e+01 2.500000e+00 0.000000e+00
1.550000e+01 2.750000e+00 0.000000e+00
1.575000e+01 2.500000e+00 0.000000e+00
1.500000e+01 2.750000e+00 0.000000e+00
1.525000e+01 2.500000e+00 0.000000e+00
2.950000e+01 2.250000e+00 0.000000e+00
2.975000e+01 2.000000e+00 0.000000e+00
3.000000e+01 2.250000e+00 0.000000e+00
2.900000e+01 2.250000e+00 0.000000e+00
2.925000e+01 2.000000e+00 0.000000e+00
2.850000e+01 2.250000e+00 0.000000e+00
2.875000e+01 2.000000e+00 0.000000e+00
2.800000e+01 2.250000e+00 0.000000e+00
2.825000e+01 2.000000e+00 0.000000e+00
2.750000e+01 2.250000e+00 0.000000e+00
2.775000e+01 2.000000e+00 0.000000e+00
2.700000e+01 2.250000e+00 0.000000e+00
2.725000e+01 2.000000e+00 0.000000e+00
2.650000e+01 2.250000e+00 0.000000e+00
2.675000e+01 2.000000e+00 0.000000e+00
2.600000e+01 2.250000e+00 0.000000e+00
2.625000e+01 2.000000e+00 0.000000e+00
2.550000e+01 2.250000e+00 0.000000e+00
2.575000e+01 2.000000e+00 0.000000e+00
2.500000e+01 2.250000e+00 0.000000e+00
2.525000e+01 2.000000e+00 0.000000e+00
2.450000e+01 2.250000e+00 0.000000e+00
2.475000e+01 2.000000e+00 0.000000e+00
2.400000e+01 2.250000e+00 0.000000e+00
2.425000e+01 2.000000e+00 0.000000e+00
2.350000e+01 2.250000e+00 0.000000e+00
2.375000e+01 2.000000e+00 0.000000e+00
2.300000e+01 2.250000e+00 0.000000e+00
2.325000e+01 2.000000e+00 0.000000e+00
2.250000e+01 2.250000e+00 0.000000e+00
2.275000e+01 2.000000e+00 0.000000e+00
2.200000e+01 2.250000e+00 0.000000e+00
2.225000e+01 2.000000e+00 0.000000e+00
2.150000e+01 2.250000e+00 0.000000e+00
2.175000e+01 2.000000e+00 0.000000e+00
2.100000e+01 2.250000e+00 0.000000e+00
2.125000e+01 2.000000e+00 0.000000e+00
2.050000e+01 2.250000e+00 0.000000e+00
2.075000e+01 2.000000e+00 0.000000e+00
2.000000e+01 2.250000e+00 0.000000e+00
2.025000e+01 2.000000e+00 0.000000e+00
1.950000e+01 2.250000e+00 0.000000e+00
1.975000e+01 2.000000e+00 0.000000e+00
1.900000e+01 2.250000e+00 0.000000e+00
1.925000e+01 2.000000e+00 0.000000e+00
1.850000e+01 2.250000e+00 0.000000e+00
1.875000e+01 2.000000e+00 0.000000e+00
1.800000e+01 2.250000e+00 0.000000e+00
1.825000e+01 2.000000e+00 0.000000e+00
1.750000e+01 2.250000e+00 0.000000e+00
1.775000e+01 2.000000e+00 0.000000e+00
1.700000e+01 2.250000e+00 0.000000e+00
1.725000e+01 2.000000e+00 0.000000e+00
1.650000e+01 2.250000e+00 0.000000e+00
1.675000e+01 2.000000e+00 0.000000e+00
1.600000e+01 2.250000e+00 0.000000e+00
1.625000e+01 2.000000e+00 0.000000e+00
1.550000e+01 2.250000e+00 0.000000e+00
1.575000e+01 2.000000e+00 0.000000e+00
1.500000e+01 2.250000e+00 0.000000e+00
1.525000e+01 2.000000e+00 0.000000e+00
2.950000e+01 1.750000e+00 0.000000e+00
2.975000e+01 1.500000e+00 0.000000e+00
3.000000e+01 1.750000e+00 0.000000e+00
2.900000e+01 1.750000e+00 0.000000e+00
2.925000e+01 1.500000e+00 0.000000e+00
2.850000e+01 1.750000e+00 0.000000e+00
2.875000e+01 1.500000e+00 0.000000e+00
2.800000e+01 1.750000e+00 0.000000e+00
2.825000e+01 1.500000e+00 0.000000e+00
2.750000e+01 1.750000e+00 0.000000e+00
2.775000e+01 1.500000e+00 0.000000e+00
2.700000e+01 1.750000e+00 0.000000e+00
2.725000e+01 1.500000e+00 0.000000e+00
2.650000e+01 1.750000e+00 0.000000e+00
2.675000e+01 1.500000e+00 0.000000e+00
2.600000e+01 1.750000e+00 0.000000e+00
2.625000e+01 1.500000e+00 0.000000e+00
2.550000e+01 1.750000e+00 0.000000e+00
2.575000e+01 1.500000e+00 0.000000e+00
2.500000e+01 1.750000e+00 0.000000e+00
2.525000e+01 1.500000e+00 0.000000e+00
2.450000e+01 1.750000e+00 0.000000e+00
2.475000e+01 1.500000e+00 0.000000e+00
2.400000e+01 1.750000e+00 0.000000e+00
2.425000e+01 1.500000e+00 0.000000e+00
2.350000e+01 1.750000e+00 0.000000e+00
2.375000e+01 1.500000e+00 0.000000e+00
2.300000e+01 1.750000e+00 0.000000e+00
2.325000e+01 1.500000e+00 0.000000e+00
2.250000e+01 1.750000e+00 0.000000e+00
2.275000e+01 1.500000e+00 0.000000e+00
2.200000e+01 1.750000e+00 0.000000e+00
2.225000e+01 1.500000e+00 0.000000e+00
2.150000e+01 1.750000e+00 0.000000e+00
2.175000e+01 1.500000e+00 0.000000e+00
2.100000e+01 1.750000e+00 0.000000e+00
2.125000e+01 1.500000e+00 0.000000e+00
2.050000e+01 1.750000e+00 0.000000e+00
2.075000e+01 1.500000e+00 0.000000e+00
2.000000e+01 1.750000e+00 0.000000e+00
2.025000e+01 1.500000e+00 0.000000e+00
1.950000e+01 1.750000e+00 0.000000e+00
1.975000e+01 1.500000e+00 0.000000e+00
1.900000e+01 1.750000e+00 0.000000e+00
1.925000e+01 1.500000e+00 0.000000e+00
1.850000e+01 1.750000e+00 0.000000e+00
1.875000e+01 1.500000e+00 0.000000e+00
1.800000e+01 1.750000e+00 0.000000e+00
1.825000e+01 1.500000e+00 0.000000e+00
1.750000e+01 1.750000e+00 0.000000e+00
1.775000e+01 1.500000e+00 0.000000e+00
1.700000e+01 1.750000e+00 0.000000e+00
1.725000e+01 1.500000e+00 0.000000e+00
1.650000e+01 1.750000e+00 0.000000e+00
1.675000e+01 1.500000e+00 0.000000e+00
1.600000e+01 1.750000e+00 0.000000e+00
1.625000e+01 1.500000e+00 0.000000e+00
1.550000e+01 1.750000e+00 0.000000e+00
1.575000e+01 1.500000e+00 0.000000e+00
1.500000e+01 1.750000e+00 0.000000e+00
1.525000e+01 1.500000e+00 0.000000e+00
2.950000e+01 1.250000e+00 0.000000e+00
2.975000e+01 1.000000e+00 0.000000e+00
3.000000e+01 1.250000e+00 0.000000e+00
2.900000e+01 1.250000e+00 0.000000e+00
2.925000e+01 1.000000e+00 0.000000e+00
2.850000e+01 1.250000e+00 0.000000e+00
2.875000e+01 1.000000e+00 0.000000e+00
2.800000e+01 1.250000e+00 0.000000e+00
2.825000e+01 1.000000e+00 0.000000e+00
2.750000e+01 1.250000e+00 0.000000e+00
2.775000e+01 1.000000e+00 0.000000e+00
2.700000e+01 1.250000e+00 0.000000e+00
2.725000e+01 1.000000e+00 0.000000e+00
2.650000e+01 1.250000e+00 0.000000e+00
2.675000e+01 1.000000e+00 0.000000e+00
2.600000e+01 1.250000e+00 0.000000e+00
2.625000e+01 1.000000e+00 0.000000e+00
2.550000e+01 1.250000e+00 0.000000e+00
2.575000e+01 1.000000e+00 0.000000e+00
2.500000e+01 1.250000e+00 0.000000e+00
2.525000e+01 1.000000e+00 0.000000e+00
2.450000e+01 1.250000e+00 0.000000e+00
2.475000e+01 1.000000e+00 0.000000e+00
2.400000e+01 1.250000e+00 0.000000e+00
2.425000e+01 1.000000e+00 0.000000e+00
2.350000e+01 1.250000e+00 0.000000e+00
2.375000e+01 1.000000e+00 0.000000e+00
2.300000e+01 1.250000e+00 0.000000e+00
2.325000e+01 1.000000e+00 0.000000e+00
2.250000e+01 1.250000e+00 0.000000e+00
2.275000e+01 1.000000e+00 0.000000e+00
2.200000e+01 1.250000e+00 0.000000e+00
2.225000e+01 1.000000e+00 0.000000e+00
2.150000e+01 1.250000e+00 0.000000e+00
2.175000e+01 1.000000e+00 0.000000e+00
2.100000e+01 1.250000e+00 0.000000e+00
2.125000e+01 1.000000e+00 0.000000e+00
2.050000e+01 1.250000e+00 0.000000e+00
2.075000e+01 1.000000e+00 0.000000e+00
2.000000e+01 1.250000e+00 0.000000e+00
2.025000e+01 1.000000e+00 0.000000e+00
1.950000e+01 1.250000e+00 0.000000e+00
1.975000e+01 1.000000e+00 0.000000e+00
1.900000e+01 1.250000e+00 0.000000e+00
1.925000e+01 1.000000e+00 0.000000e+00
1.850000e+01 1.250000e+00 0.000000e+00
1.875000e+01 1.000000e+00 0.000000e+00
1.800000e+01 1.250000e+00 0.000000e+00
1.825000e+01 1.000000e+00 0.000000e+00
1.750000e+01 1.250000e+00 0.000000e+00
1.775000e+01 1.000000e+00 0.000000e+00
1.700000e+01 1.250000e+00 0.000000e+00
1.725000e+01 1.000000e+00 0.000000e+00
1.650000e+01 1.250000e+00 0.000000e+00
1.675000e+01 1.000000e+00 0.000000e+00
1.600000e+01 1.250000e+00 0.000000e+00
1.625000e+01 1.000000e+00 0.000000e+00
1.550000e+01 1.250000e+00 0.000000e+00
1.575000e+01 1.000000e+00 0.000000e+00
1.500000e+01 1.250000e+00 0.000000e+00
1.525000e+01 1.000000e+00 0.000000e+00
2.950000e+01 7.500000e-01 0.000000e+00
2.975000e+01 5.000000e-01 0.000000e+00
3.000000e+01 7.500000e-01 0.000000e+00
2.900000e+01 7.500000e-01 0.000000e+00
2.925000e+01 5.000000e-01 0.000000e+00
2.850000e+01 7.500000e-01 0.000000e+00
2.875000e+01 5.000000e-01 0.000000e+00
2.800000e+01 7.500000e-01 0.000000e+00
2.825000e+01 5.000000e-01 0.000000e+00
2.750000e+01 7.500000e-01 0.000000e+00
2.775000e+01 5.000000e-01 0.000000e+00
2.700000e+01 7.500000e-01 0.000000e+00
2.725000e+01 5.000000e-01 0.000000e+00
2.650000e+01 7.500000e-01 0.000000e+00
2.675000e+01 5.000000e-01 0.000000e+00
2.600000e+01 7.500000e-01 0.000000e+00
2.625000e+01 5.000000e-01 0.000000e+00
2.550000e+01 7.500000e-01 0.000000e+00
2.575000e+01 5.000000e-01 0.000000e+00
2.500000e+01 7.500000e-01 0.000000e+00
2.525000e+01 5.000000e-01 0.000000e+00
2.450000e+01 7.500000e-01 0.000000e+00
2.475000e+01 5.000000e-01 0.000000e+00
2.400000e+01 7.500000e-01 0.000000e+00
2.425000e+01 5.000000e-01 0.000000e+00
2.350000e+01 7.500000e-01 0.000000e+00
2.375000e+01 5.000000e-01 0.000000e+00
2.300000e+01 7.500000e-01 0.000000e+00
2.325000e+01 5.000000e-01 0.000000e+00
2.250000e+01 7.500000e-01 0.000000e+00
2.275000e+01 5.000000e-01 0.000000e+00
2.200000e+01 7.500000e-01 0.000000e+00
2.225000e+01 5.000000e-01 0.000000e+00
2.150000e+01 7.500000e-01 0.000000e+00
2.175000e+01 5.000000e-01 0.000000e+00
2.100000e+01 7.500000e-01 0.000000e+00
2.125000e+01 5.000000e-01 0.000000e+00
2.050000e+01 7.500000e-01 0.000000e+00
2.075000e+01 5.000000e-01 0.000000e+00
2.000000e+01 7.500000e-01 0.000000e+00
2.025000e+01 5.000000e-01 0.000000e+00
1.950000e+01 7.500000e-01 0.000000e+00
1.975000e+01 5.000000e-01 0.000000e+00
1.900000e+01 7.500000e-01 0.000000e+00
1.925000e+01 5.000000e-01 0.000000e+00
1.850000e+01 7.500000e-01 0.000000e+00
1.875000e+01 5.000000e-01 0.000000e+00
1.800000e+01 7.500000e-01 0.000000e+00
1.825000e+01 5.000000e-01 0.000000e+00
1.750000e+01 7.500000e-01 0.000000e+00
1.775000e+01 5.000000e-01 0.000000e+00
1.700000e+01 7.500000e-01 0.000000e+00
1.725000e+01 5.000000e-01 0.000000e+00
1.650000e+01 7.500000e-01 0.000000e+00
1.675000e+01 5.000000e-01 0.000000e+00
1.600000e+01 7.500000e-01 0.000000e+00
1.625000e+01 5.000000e-01 0.000000e+00
1.550000e+01 7.500000e-01 0.000000e+00
1.575000e+01 5.000000e-01 0.000000e+00
1.500000e+01 7.500000e-01 0.000000e+00
1.525000e+01 5.000000e-01 0.000000e+00
2.950000e+01 2.500000e-01 0.000000e+00
2.975000e+01 0.000000e+00 0.000000e+00
3.000000e+01 2.500000e-01 0.000000e+00
2.900000e+01 2.500000e-01 0.000000e+00
2.925000e+01 0.000000e+00 0.000000e+00
2.850000e+01 2.500000e-01 0.000000e+00
2.875000e+01 0.000000e+00 0.000000e+00
2.800000e+01 2.500000e-01 0.000000e+00
2.825000e+01 0.000000e+00 0.000000e+00
2.750000e+01 2.500000e-01 0.000000e+00
2.775000e+01 0.000000e+00 0.000000e+00
2.700000e+01 2.500000e-01 0.000000e+00
2.725000e+01 0.000000e+00 0.000000e+00
2.650000e+01 2.500000e-01 0.000000e+00
2.675000e+01 0.000000e+00 0.000000e+00
2.600000e+01 2.500000e-01 0.000000e+00
2.625000e+01 0.000000e+00 0.000000e+00
2.550000e+01 2.500000e-01 0.000000e+00
2.575000e+01 0.000000e+00 0.000000e+00
2.500000e+01 2.500000e-01 0.000000e+00
2.525000e+01 0.000000e+00 0.000000e+00
2.450000e+01 2.500000e-01 0.000000e+00
2.475000e+01 0.000000e+00 0.000000e+00
2.400000e+01 2.500000e-01 0.000000e+00
2.425000e+01 0.000000e+00 0.000000e+00
2.350000e+01 2.500000e-01 0.000000e+00
2.375000e+01 0.000000e+00 0.000000e+00
2.300000e+01 2.500000e-01 0.000000e+00
2.325000e+01 0.000000e+00 0.000000e+00
2.250000e+01 2.500000e-01 0.000000e+00
2.275000e+01 0.000000e+00 0.000000e+00
2.200000e+01 2.500000e-01 0.000000e+00
2.225000e+01 0.000000e+00 0.000000e+00
2.150000e+01 2.500000e-01 0.000000e+00
2.175000e+01 0.000000e+00 0.000000e+00
2.100000e+01 2.500000e-01 0.000000e+00
2.125000e+01 0.000000e+00 0.000000e+00
2.050000e+01 2.500000e-01 0.000000e+00
2.075000e+01 0.000000e+00 0.000000e+00
2.000000e+01 2.500000e-01 0.000000e+00
2.025000e+01 0.000000e+00 0.000000e+00
1.950000e+01 2.500000e-01 0.000000e+00
1.975000e+01 0.000000e+00 0.000000e+00
1.900000e+01 2.500000e-01 0.000000e+00
1.925000e+01 0.000000e+00 0.000000e+00
1.850000e+01 2.500000e-01 0.000000e+00
1.875000e+01 0.000000e+00 0.000000e+00
1.800000e+01 2.500000e-01 0.000000e+00
1.825000e+01 0.000000e+00 0.000000e+00
1.750000e+01 2.500000e-01 0.000000e+00
1.775000e+01 0.000000e+00 0.000000e+00
1.700000e+01 2.500000e-01 0.000000e+00
1.725000e+01 0.000000e+00 0.000000e+00
1.650000e+01 2.500000e-01 0.000000e+00
1.675000e+01 0.000000e+00 0.000000e+00
1.600000e+01 2.500000e-01 0.000000e+00
1.625000e+01 0.000000e+00 0.000000e+00
1.550000e+01 2.500000e-01 0.000000e+00
1.575000e+01 0.000000e+00 0.000000e+00
1.500000e+01 2.500000e-01 0.000000e+00
1.525000e+01 0.000000e+00 0.000000e+00
2.950000e+01 -2.500000e-01 0.000000e+00
2.975000e+01 -5.000000e-01 0.000000e+00
3.000000e+01 -2.500000e-01 0.000000e+00
2.900000e+01 -2.500000e-01 0.000000e+00
2.925000e+01 -5.000000e-01 0.000000e+00
2.850000e+01 -2.500000e-01 0.000000e+00
2.875000e+01 -5.000000e-01 0.000000e+00
2.800000e+01 -2.500000e-01 0.000000e+00
2.825000e+01 -5.000000e-01 0.000000e+00
2.750000e+01 -2.500000e-01 0.000000e+00
2.775000e+01 -5.000000e-01 0.000000e+00
2.700000e+01 -2.500000e-01 0.000000e+00
2.725000e+01 -5.000000e-01 0.000000e+00
2.650000e+01 -2.500000e-01 0.000000e+00
2.675000e+01 -5.000000e-01 0.000000e+00
2.600000e+01 -2.500000e-01 0.000000e+00
2.625000e+01 -5.000000e-01 0.000000e+00
2.550000e+01 -2.500000e-01 0.000000e+00
2.575000e+01 -5.000000e-01 0.000000e+00
2.500000e+01 -2.500000e-01 0.000000e+00
2.525000e+01 -5.000000e-01 0.000000e+00
2.450000e+01 -2.500000e-01 0.000000e+00
2.475000e+01 -5.000000e-01 0.000000e+00
2.400000e+01 -2.500000e-01 0.000000e+00
2.425000e+01 -5.000000e-01 0.000000e+00
2.350000e+01 -2.500000e-01 0.000000e+00
2.375000e+01 -5.000000e-01 0.000000e+00
2.300000e+01 -2.500000e-01 0.000000e+00
2.325000e+01 -5.000000e-01 0.000000e+00
2.250000e+01 -2.500000e-01 0.000000e+00
2.275000e+01 -5.000000e-01 0.000000e+00
2.200000e+01 -2.500000e-01 0.000000e+00
2.225000e+01 -5.000000e-01 0.000000e+00
2.150000e+01 -2.500000e-01 0.000000e+00
2.175000e+01 -5.000000e-01 0.000000e+00
2.100000e+01 -2.500000e-01 0.000000e+00
2.125000e+01 -5.000000e-01 0.000000e+00
2.050000e+01 -2.500000e-01 0.000000e+00
2.075000e+01 -5.000000e-01 0.000000e+00
2.000000e+01 -2.500000e-01 0.000000e+00
2.025000e+01 -5.000000e-01 0.000000e+00
1.950000e+01 -2.500000e-01 0.000000e+00
1.975000e+01 -5.000000e-01 0.000000e+00
1.900000e+01 -2.500000e-01 0.000000e+00
1.925000e+01 -5.000000e-01 0.000000e+00
1.850000e+01 -2.500000e-01 0.000000e+00
1.875000e+01 -5.000000e-01 0.000000e+00
1.800000e+01 -2.500000e-01 0.000000e+00
1.825000e+01 -5.000000e-01 0.000000e+00
1.750000e+01 -2.500000e-01 0.000000e+00
1.775000e+01 -5.000000e-01 0.000000e+00
1.700000e+01 -2.500000e-01 0.000000e+00
1.725000e+01 -5.000000e-01 0.000000e+00
1.650000e+01 -2.500000e-01 0.000000e+00
1.675000e+01 -5.000000e-01 0.000000e+00
1.600000e+01 -2.500000e-01 0.000000e+00
1.625000e+01 -5.000000e-01 0.000000e+00
1.550000e+01 -2.500000e-01 0.000000e+00
1.575000e+01 -5.000000e-01 0.000000e+00
1.500000e+01 -2.500000e-01 0.000000e+00
1.525000e+01 -5.000000e-01 0.000000e+00
2.950000e+01 -7.500000e-01 0.000000e+00
2.975000e+01 -1.000000e+00 0.000000e+00
3.000000e+01 -7.500000e-01 0.000000e+00
2.900000e+01 -7.500000e-01 0.000000e+00
2.925000e+01 -1.000000e+00 0.000000e+00
2.850000e+01 -7.500000e-01 0.000000e+00
2.875000e+01 -1.000000e+00 0.000000e+00
2.800000e+01 -7.500000e-01 0.000000e+00
2.825000e+01 -1.000000e+00 0.000000e+00
2.750000e+01 -7.500000e-01 0.000000e+00
2.775000e+01 -1.000000e+00 0.000000e+00
2.700000e+01 -7.500000e-01 0.000000e+00
2.725000e+01 -1.000000e+00 0.000000e+00
2.650000e+01 -7.500000e-01 0.000000e+00
2.675000e+01 -1.000000e+00 0.000000e+00
2.600000e+01 -7.500000e-01 0.000000e+00
2.625000e+01 -1.000000e+00 0.000000e+00
2.550000e+01 -7.500000e-01 0.000000e+00
2.575000e+01 -1.000000e+00 0.000000e+00
2.500000e+01 -7.500000e-01 0.000000e+00
2.525000e+01 -1.000000e+00 0.000000e+00
2.450000e+01 -7.500000e-01 0.000000e+00
2.475000e+01 -1.000000e+00 0.000000e+00
2.400000e+01 -7.500000e-01 0.000000e+00
2.425000e+01 -1.000000e+00 0.000000e+00
2.350000e+01 -7.500000e-01 0.000000e+00
2.375000e+01 -1.000000e+00 0.000000e+00
2.300000e+01 -7.500000e-01 0.000000e+00
2.325000e+01 -1.000000e+00 0.000000e+00
2.250000e+01 -7.500000e-01 0.000000e+00
2.275000e+01 -1.000000e+00 0.000000e+00
2.200000e+01 -7.500000e-01 0.000000e+00
2.225000e+01 -1.000000e+00 0.000000e+00
2.150000e+01 -7.500000e-01 0.000000e+00
2.175000e+01 -1.000000e+00 0.000000e+00
2.100000e+01 -7.500000e-01 0.000000e+00
2.125000e+01 -1.000000e+00 0.000000e+00
2.050000e+01 -7.500000e-01 0.000000e+00
2.075000e+01 -1.000000e+00 0.000000e+00
2.000000e+01 -7.500000e-01 0.000000e+00
2.025000e+01 -1.000000e+00 0.000000e+00
1.950000e+01 -7.500000e-01 0.000000e+00
1.975000e+01 -1.000000e+00 0.000000e+00
1.900000e+01 -7.500000e-01 0.000000e+00
1.925000e+01 -1.000000e+00 0.000000e+00
1.850000e+01 -7.500000e-01 0.000000e+00
1.875000e+01 -1.000000e+00 0.000000e+00
1.800000e+01 -7.500000e-01 0.000000e+00
1.825000e+01 -1.000000e+00 0.000000e+00
1.750000e+01 -7.500000e-01 0.000000e+00
1.775000e+01 -1.000000e+00 0.000000e+00
1.700000e+01 -7.500000e-01 0.000000e+00
1.725000e+01 -1.000000e+00 0.000000e+00
1.650000e+01 -7.500000e-01 0.000000e+00
1.675000e+01 -1.000000e+00 0.000000e+00
1.600000e+01 -7.500000e-01 0.000000e+00
1.625000e+01 -1.000000e+00 0.000000e+00
1.550000e+01 -7.500000e-01 0.000000e+00
1.575000e+01 -1.000000e+00 0.000000e+00
1.500000e+01 -7.500000e-01 0.000000e+00
1.525000e+01 -1.000000e+00 0.000000e+00
2.950000e+01 -1.250000e+00 0.000000e+00
2.975000e+01 -1.500000e+00 0.000000e+00
3.000000e+01 -1.250000e+00 0.000000e+00
2.900000e+01 -1.250000e+00 0.000000e+00
2.925000e+01 -1.500000e+00 0.000000e+00
2.850000e+01 -1.250000e+00 0.000000e+00
2.875000e+01 -1.500000e+00 0.000000e+00
2.800000e+01 -1.250000e+00 0.000000e+00
2.825000e+01 -1.500000e+00 0.000000e+00
2.750000e+01 -1.250000e+00 0.000000e+00
2.775000e+01 -1.500000e+00 0.000000e+00
2.700000e+01 -1.250000e+00 0.000000e+00
2.725000e+01 -1.500000e+00 0.000000e+00
2.650000e+01 -1.250000e+00 0.000000e+00
2.675000e+01 -1.500000e+00 0.000000e+00
2.600000e+01 -1.250000e+00 0.000000e+00
2.625000e+01 -1.500000e+00 0.000000e+00
2.550000e+01 -1.250000e+00 0.000000e+00
2.575000e+01 -1.500000e+00 0.000000e+00
2.500000e+01 -1.250000e+00 0.000000e+00
2.525000e+01 -1.500000e+00 0.000000e+00
2.450000e+01 -1.250000e+00 0.000000e+00
2.475000e+01 -1.500000e+00 0.000000e+00
2.400000e+01 -1.250000e+00 0.000000e+00
2.425000e+01 -1.500000e+00 0.000000e+00
2.350000e+01 -1.250000e+00 0.000000e+00
2.375000e+01 -1.500000e+00 0.000000e+00
2.300000e+01 -1.250000e+00 0.000000e+00
2.325000e+01 -1.500000e+00 0.000000e+00
2.250000e+01 -1.250000e+00 0.000000e+00
2.275000e+01 -1.500000e+00 0.000000e+00
2.200000e+01 -1.250000e+00 0.000000e+00
2.225000e+01 -1.500000e+00 0.000000e+00
2.150000e+01 -1.250000e+00 0.000000e+00
2.175000e+01 -1.500000e+00 0.000000e+00
2.100000e+01 -1.250000e+00 0.000000e+00
2.125000e+01 -1.500000e+00 0.000000e+00
2.050000e+01 -1.250000e+00 0.000000e+00
2.075000e+01 -1.500000e+00 0.000000e+00
2.000000e+01 -1.250000e+00 0.000000e+00
2.025000e+01 -1.500000e+00 0.000000e+00
1.950000e+01 -1.250000e+00 0.000000e+00
1.975000e+01 -1.500000e+00 0.000000e+00
1.900000e+01 -1.250000e+00 0.000000e+00
1.925000e+01 -1.500000e+00 0.000000e+00
1.850000e+01 -1.250000e+00 0.000000e+00
1.875000e+01 -1.500000e+00 0.000000e+00
1.800000e+01 -1.250000e+00 0.000000e+00
1.825000e+01 -1.500000e+00 0.000000e+00
1.750000e+01 -1.250000e+00 0.000000e+00
1.775000e+01 -1.500000e+00 0.000000e+00
1.700000e+01 -1.250000e+00 0.000000e+00
1.725000e+01 -1.500000e+00 0.000000e+00
1.650000e+01 -1.250000e+00 0.000000e+00
1.675000e+01 -1.500000e+00 0.000000e+00
1.600000e+01 -1.250000e+00 0.000000e+00
1.625000e+01 -1.500000e+00 0.000000e+00
1.550000e+01 -1.250000e+00 0.000000e+00
1.575000e+01 -1.500000e+00 0.000000e+00
1.500000e+01 -1.250000e+00 0.000000e+00
1.525000e+01 -1.500000e+00 0.000000e+00
2.950000e+01 -1.750000e+00 0.000000e+00
2.975000e+01 -2.000000e+00 0.000000e+00
3.000000e+01 -1.750000e+00 0.000000e+00
2.900000e+01 -1.750000e+00 0.000000e+00
2.925000e+01 -2.000000e+00 0.000000e+00
2.850000e+01 -1.750000e+00 0.000000e+00
2.875000e+01 -2.000000e+00 0.000000e+00
2.800000e+01 -1.750000e+00 0.000000e+00
2.825000e+01 -2.000000e+00 0.000000e+00
2.750000e+01 -1.750000e+00 0.000000e+00
2.775000e+01 -2.000000e+00 0.000000e+00
2.700000e+01 -1.750000e+00 0.000000e+00
2.725000e+01 -2.000000e+00 0.000000e+00
2.650000e+01 -1.750000e+00 0.000000e+00
2.675000e+01 -2.000000e+00 0.000000e+00
2.600000e+01 -1.750000e+00 0.000000e+00
2.625000e+01 -2.000000e+00 0.000000e+00
2.550000e+01 -1.750000e+00 0.000000e+00
2.575000e+01 -2.000000e+00 0.000000e+00
2.500000e+01 -1.750000e+00 0.000000e+00
2.525000e+01 -2.000000e+00 0.000000e+00
2.450000e+01 -1.750000e+00 0.000000e+00
2.475000e+01 -2.000000e+00 0.000000e+00
2.400000e+01 -1.750000e+00 0.000000e+00
2.425000e+01 -2.000000e+00 0.000000e+00
2.350000e+01 -1.750000e+00 0.000000e+00
2.375000e+01 -2.000000e+00 0.000000e+00
2.300000e+01 -1.750000e+00 0.000000e+00
2.325000e+01 -2.000000e+00 0.000000e+00
2.250000e+01 -1.750000e+00 0.000000e+00
2.275000e+01 -2.000000e+00 0.000000e+00
2.200000e+01 -1.750000e+00 0.000000e+00
2.225000e+01 -2.000000e+00 0.000000e+00
2.150000e+01 -1.750000e+00 0.000000e+00
2.175000e+01 -2.000000e+00 0.000000e+00
2.100000e+01 -1.750000e+00 0.000000e+00
2.125000e+01 -2.000000e+00 0.000000e+00
2.050000e+01 -1.750000e+00 0.000000e+00
2.075000e+01 -2.000000e+00 0.000000e+00
2.000000e+01 -1.750000e+00 0.000000e+00
2.025000e+01 -2.000000e+00 0.000000e+00
1.950000e+01 -1.750000e+00 0.000000e+00
1.975000e+01 -2.000000e+00 0.000000e+00
1.900000e+01 -1.750000e+00 0.000000e+00
1.925000e+01 -2.000000e+00 0.000000e+00
1.850000e+01 -1.750000e+00 0.000000e+00
1.875000e+01 -2.000000e+00 0.000000e+00
1.800000e+01 -1.750000e+00 0.000000e+00
1.825000e+01 -2.000000e+00 0.000000e+00
1.750000e+01 -1.750000e+00 0.000000e+00
1.775000e+01 -2.000000e+00 0.000000e+00
1.700000e+01 -1.750000e+00 0.000000e+00
1.725000e+01 -2.000000e+00 0.000000e+00
1.650000e+01 -1.750000e+00 0.000000e+00
1.675000e+01 -2.000000e+00 0.000000e+00
1.600000e+01 -1.750000e+00 0.000000e+00
1.625000e+01 -2.000000e+00 0.000000e+00
1.550000e+01 -1.750000e+00 0.000000e+00
1.575000e+01 -2.000000e+00 0.000000e+00
1.500000e+01 -1.750000e+00 0.000000e+00
1.525000e+01 -2.000000e+00 0.000000e+00
2.950000e+01 -2.250000e+00 0.000000e+00
2.975000e+01 -2.500000e+00 0.000000e+00
3.000000e+01 -2.250000e+00 0.000000e+00
2.900000e+01 -2.250000e+00 0.000000e+00
2.925000e+01 -2.500000e+00 0.000000e+00
2.850000e+01 -2.250000e+00 0.000000e+00
2.875000e+01 -2.500000e+00 0.000000e+00
2.800000e+01 -2.250000e+00 0.000000e+00
2.825000e+01 -2.500000e+00 0.000000e+00
2.750000e+01 -2.250000e+00 0.000000e+00
2.775000e+01 -2.500000e+00 0.000000e+00
2.700000e+01 -2.250000e+00 0.000000e+00
2.725000e+01 -2.500000e+00 0.000000e+00
2.650000e+01 -2.250000e+00 0.000000e+00
2.675000e+01 -2.500000e+00 0.000000e+00
2.600000e+01 -2.250000e+00 0.000000e+00
2.625000e+01 -2.500000e+00 0.000000e+00
2.550000e+01 -2.250000e+00 0.000000e+00
2.575000e+01 -2.500000e+00 0.000000e+00
2.500000e+01 -2.250000e+00 0.000000e+00
2.525000e+01 -2.500000e+00 0.000000e+00
2.450000e+01 -2.250000e+00 0.000000e+00
2.475000e+01 -2.500000e+00 0.000000e+00
2.400000e+01 -2.250000e+00 0.000000e+00
2.425000e+01 -2.500000e+00 0.000000e+00
2.350000e+01 -2.250000e+00 0.000000e+00
2.375000e+01 -2.500000e+00 0.000000e+00
2.300000e+01 -2.250000e+00 0.000000e+00
2.325000e+01 -2.500000e+00 0.000000e+00
2.250000e+01 -2.250000e+00 0.000000e+00
2.275000e+01 -2.500000e+00 0.000000e+00
2.200000e+01 -2.250000e+00 0.000000e+00
2.225000e+01 -2.500000e+00 0.000000e+00
2.150000e+01 -2.250000e+00 0.000000e+00
2.175000e+01 -2.500000e+00 0.000000e+00
2.100000e+01 -2.250000e+00 0.000000e+00
2.125000e+01 -2.500000e+00 0.000000e+00
2.050000e+01 -2.250000e+00 0.000000e+00
2.075000e+01 -2.500000e+00 0.000000e+00
2.000000e+01 -2.250000e+00 0.000000e+00
2.025000e+01 -2.500000e+00 0.000000e+00
1.950000e+01 -2.250000e+00 0.000000e+00
1.975000e+01 -2.500000e+00 0.000000e+00
1.900000e+01 -2.250000e+00 0.000000e+00
1.925000e+01 -2.500000e+00 0.000000e+00
1.850000e+01 -2.250000e+00 0.000000e+00
1.875000e+01 -2.500000e+00 0.000000e+00
1.800000e+01 -2.250000e+00 0.000000e+00
1.825000e+01 -2.500000e+00 0.000000e+00
1.750000e+01 -2.250000e+00 0.000000e+00
1.775000e+01 -2.500000e+00 0.000000e+00
1.700000e+01 -2.250000e+00 0.000000e+00
1.725000e+01 -2.500000e+00 0.000000e+00
1.650000e+01 -2.250000e+00 0.000000e+00
1.675000e+01 -2.500000e+00 0.000000e+00
1.600000e+01 -2.250000e+00 0.000000e+00
1.625000e+01 -2.500000e+00 0.000000e+00
1.550000e+01 -2.250000e+00 0.000000e+00
1.575000e+01 -2.500000e+00 0.000000e+00
1.500000e+01 -2.250000e+00 0.000000e+00
1.525000e+01 -2.500000e+00 0.000000e+00
2.950000e+01 -2.750000e+00 0.000000e+00
2.975000e+01 -3.000000e+00 0.000000e+00
3.000000e+01 -2.750000e+00 0.000000e+00
2.900000e+01 -2.750000e+00 0.000000e+00
2.925000e+01 -3.000000e+00 0.000000e+00
2.850000e+01 -2.750000e+00 0.000000e+00
2.875000e+01 -3.000000e+00 0.000000e+00
2.800000e+01 -2.750000e+00 0.000000e+00
2.825000e+01 -3.000000e+00 0.000000e+00
2.750000e+01 -2.750000e+00 0.000000e+00
2.775000e+01 -3.000000e+00 0.000000e+00
2.700000e+01 -2.750000e+00 0.000000e+00
2.725000e+01 -3.000000e+00 0.000000e+00
2.650000e+01 -2.750000e+00 0.000000e+00
2.675000e+01 -3.000000e+00 0.000000e+00
2.600000e+01 -2.750000e+00 0.000000e+00
2.625000e+01 -3.000000e+00 0.000000e+00
2.550000e+01 -2.750000e+00 0.000000e+00
2.575000e+01 -3.000000e+00 0.000000e+00
2.500000e+01 -2.750000e+00 0.000000e+00
2.525000e+01 -3.000000e+00 0.000000e+00
2.450000e+01 -2.750000e+00 0.000000e+00
2.475000e+01 -3.000000e+00 0.000000e+00
2.400000e+01 -2.750000e+00 0.000000e+00
2.425000e+01 -3.000000e+00 0.000000e+00
2.350000e+01 -2.750000e+00 0.000000e+00
2.375000e+01 -3.000000e+00 0.000000e+00
2.300000e+01 -2.750000e+00 0.000000e+00
2.325000e+01 -3.000000e+00 0.000000e+00
2.250000e+01 -2.750000e+00 0.000000e+00
2.275000e+01 -3.000000e+00 0.000000e+00
2.200000e+01 -2.750000e+00 0.000000e+00
2.225000e+01 -3.000000e+00 0.000000e+00
2.150000e+01 -2.750000e+00 0.000000e+00
2.175000e+01 -3.000000e+00 0.000000e+00
2.100000e+01 -2.750000e+00 0.000000e+00
2.125000e+01 -3.000000e+00 0.000000e+00
2.050000e+01 -2.750000e+00 0.000000e+00
2.075000e+01 -3.000000e+00 0.000000e+00
2.000000e+01 -2.750000e+00 0.000000e+00
2.025000e+01 -3.000000e+00 0.000000e+00
1.950000e+01 -2.750000e+00 0.000000e+00
1.975000e+01 -3.000000e+00 0.000000e+00
1.900000e+01 -2.750000e+00 0.000000e+00
1.925000e+01 -3.000000e+00 0.000000e+00
1.850000e+01 -2.750000e+00 0.000000e+00
1.875000e+01 -3.000000e+00 0.000000e+00
1.800000e+01 -2.750000e+00 0.000000e+00
1.825000e+01 -3.000000e+00 0.000000e+00
1.750000e+01 -2.750000e+00 0.000000e+00
1.775000e+01 -3.000000e+00 0.000000e+00
1.700000e+01 -2.750000e+00 0.000000e+00
1.725000e+01 -3.000000e+00 0.000000e+00
1.650000e+01 -2.750000e+00 0.000000e+00
1.675000e+01 -3.000000e+00 0.000000e+00
1.600000e+01 -2.750000e+00 0.000000e+00
1.625000e+01 -3.000000e+00 0.000000e+00
1.550000e+01 -2.750000e+00 0.000000e+00
1.575000e+01 -3.000000e+00 0.000000e+00
1.500000e+01 -2.750000e+00 0.000000e+00
1.525000e+01 -3.000000e+00 0.000000e+00
2.950000e+01 -3.250000e+00 0.000000e+00
2.975000e+01 -3.500000e+00 0.000000e+00
3.000000e+01 -3.250000e+00 0.000000e+00
2.900000e+01 -3.250000e+00 0.000000e+00
2.925000e+01 -3.500000e+00 0.000000e+00
2.850000e+01 -3.250000e+00 0.000000e+00
2.875000e+01 -3.500000e+00 0.000000e+00
2.800000e+01 -3.250000e+00 0.000000e+00
2.825000e+01 -3.500000e+00 0.000000e+00
2.750000e+01 -3.250000e+00 0.000000e+00
2.775000e+01 -3.500000e+00 0.000000e+00
2.700000e+01 -3.250000e+00 0.000000e+00
2.725000e+01 -3.500000e+00 0.000000e+00
2.650000e+01 -3.250000e+00 0.000000e+00
2.675000e+01 -3.500000e+00 0.000000e+00
2.600000e+01 -3.250000e+00 0.000000e+00
2.625000e+01 -3.500000e+00 0.000000e+00
2.550000e+01 -3.250000e+00 0.000000e+00
2.575000e+01 -3.500000e+00 0.000000e+00
2.500000e+01 -3.250000e+00 0.000000e+00
2.525000e+01 -3.500000e+00 0.000000e+00
2.450000e+01 -3.250000e+00 0.000000e+00
2.475000e+01 -3.500000e+00 0.000000e+00
2.400000e+01 -3.250000e+00 0.000000e+00
2.425000e+01 -3.500000e+00 0.000000e+00
2.350000e+01 -3.250000e+00 0.000000e+00
2.375000e+01 -3.500000e+00 0.000000e+00
2.300000e+01 -3.250000e+00 0.000000e+00
2.325000e+01 -3.500000e+00 0.000000e+00
2.250000e+01 -3.250000e+00 0.000000e+00
2.275000e+01 -3.500000e+00 0.000000e+00
2.200000e+01 -3.250000e+00 0.000000e+00
2.225000e+01 -3.500000e+00 0.000000e+00
2.150000e+01 -3.250000e+00 0.000000e+00
2.175000e+01 -3.500000e+00 0.000000e+00
2.100000e+01 -3.250000e+00 0.000000e+00
2.125000e+01 -3.500000e+00 0.000000e+00
2.050000e+01 -3.250000e+00 0.000000e+00
2.075000e+01 -3.500000e+00 0.000000e+00
2.000000e+01 -3.250000e+00 0.000000e+00
2.025000e+01 -3.500000e+00 0.000000e+00
1.950000e+01 -3.250000e+00 0.000000e+00
1.975000e+01 -3.500000e+00 0.000000e+00
1.900000e+01 -3.250000e+00 0.000000e+00
1.925000e+01 -3.500000e+00 0.000000e+00
1.850000e+01 -3.250000e+00 0.000000e+00
1.875000e+01 -3.500000e+00 0.000000e+00
1.800000e+01 -3.250000e+00 0.000000e+00
1.825000e+01 -3.500000e+00 0.000000e+00
1.750000e+01 -3.250000e+00 0.000000e+00
1.775000e+01 -3.500000e+00 0.000000e+00
1.700000e+01 -3.250000e+00 0.000000e+00
1.725000e+01 -3.500000e+00 0.000000e+00
1.650000e+01 -3.250000e+00 0.000000e+00
1.675000e+01 -3.500000e+00 0.000000e+00
1.600000e+01 -3.250000e+00 0.000000e+00
1.625000e+01 -3.500000e+00 0.000000e+00
1.550000e+01 -3.250000e+00 0.000000e+00
1.575000e+01 -3.500000e+00 0.000000e+00
1.500000e+01 -3.250000e+00 0.000000e+00
1.525000e+01 -3.500000e+00 0.000000e+00
2.950000e+01 -3.750000e+00 0.000000e+00
2.975000e+01 -4.000000e+00 0.000000e+00
3.000000e+01 -3.750000e+00 0.000000e+00
2.900000e+01 -3.750000e+00 0.000000e+00
2.925000e+01 -4.000000e+00 0.000000e+00
2.850000e+01 -3.750000e+00 0.000000e+00
2.875000e+01 -4.000000e+00 0.000000e+00
2.800000e+01 -3.750000e+00 0.000000e+00
2.825000e+01 -4.000000e+00 0.000000e+00
2.750000e+01 -3.750000e+00 0.000000e+00
2.775000e+01 -4.000000e+00 0.000000e+00
2.700000e+01 -3.750000e+00 0.000000e+00
2.725000e+01 -4.000000e+00 0.000000e+00
2.650000e+01 -3.750000e+00 0.000000e+00
2.675000e+01 -4.000000e+00 0.000000e+00
2.600000e+01 -3.750000e+00 0.000000e+00
2.625000e+01 -4.000000e+00 0.000000e+00
2.550000e+01 -3.750000e+00 0.000000e+00
2.575000e+01 -4.000000e+00 0.000000e+00
2.500000e+01 -3.750000e+00 0.000000e+00
2.525000e+01 -4.000000e+00 0.000000e+00
2.450000e+01 -3.750000e+00 0.000000e+00
2.475000e+01 -4.000000e+00 0.000000e+00
2.400000e+01 -3.750000e+00 0.000000e+00
2.425000e+01 -4.000000e+00 0.000000e+00
2.350000e+01 -3.750000e+00 0.000000e+00
2.375000e+01 -4.000000e+00 0.000000e+00
2.300000e+01 -3.750000e+00 0.000000e+00
2.325000e+01 -4.000000e+00 0.000000e+00
2.250000e+01 -3.750000e+00 0.000000e+00
2.275000e+01 -4.000000e+00 0.000000e+00
2.200000e+01 -3.750000e+00 0.000000e+00
2.225000e+01 -4.000000e+00 0.000000e+00
2.150000e+01 -3.750000e+00 0.000000e+00
2.175000e+01 -4.000000e+00 0.000000e+00
2.100000e+01 -3.750000e+00 0.000000e+00
2.125000e+01 -4.000000e+00 0.000000e+00
2.050000e+01 -3.750000e+00 0.000000e+00
2.075000e+01 -4.000000e+00 0.000000e+00
2.000000e+01 -3.750000e+00 0.000000e+00
2.025000e+01 -4.000000e+00 0.000000e+00
1.950000e+01 -3.750000e+00 0.000000e+00
1.975000e+01 -4.000000e+00 0.000000e+00
1.900000e+01 -3.750000e+00 0.000000e+00
1.925000e+01 -4.000000e+00 0.000000e+00
1.850000e+01 -3.750000e+00 0.000000e+00
1.875000e+01 -4.000000e+00 0.000000e+00
1.800000e+01 -3.750000e+00 0.000000e+00
1.825000e+01 -4.000000e+00 0.000000e+00
1.750000e+01 -3.750000e+00 0.000000e+00
1.775000e+01 -4.000000e+00 0.000000e+00
1.700000e+01 -3.750000e+00 0.000000e+00
1.725000e+01 -4.000000e+00 0.000000e+00
1.650000e+01 -3.750000e+00 0.000000e+00
1.675000e+01 -4.000000e+00 0.000000e+00
1.600000e+01 -3.750000e+00 0.000000e+00
1.625000e+01 -4.000000e+00 0.000000e+00
1.550000e+01 -3.750000e+00 0.000000e+00
1.575000e+01 -4.000000e+00 0.000000e+00
1.500000e+01 -3.750000e+00 0.000000e+00
1.525000e+01 -4.000000e+00 0.000000e+00
2.950000e+01 -4.250000e+00 0.000000e+00
2.975000e+01 -4.500000e+00 0.000000e+00
3.000000e+01 -4.250000e+00 0.000000e+00
2.900000e+01 -4.250000e+00 0.000000e+00
2.925000e+01 -4.500000e+00 0.000000e+00
2.850000e+01 -4.250000e+00 0.000000e+00
2.875000e+01 -4.500000e+00 0.000000e+00
2.800000e+01 -4.250000e+00 0.000000e+00
2.825000e+01 -4.500000e+00 0.000000e+00
2.750000e+01 -4.250000e+00 0.000000e+00
2.775000e+01 -4.500000e+00 0.000000e+00
2.700000e+01 -4.250000e+00 0.000000e+00
2.725000e+01 -4.500000e+00 0.000000e+00
2.650000e+01 -4.250000e+00 0.000000e+00
2.675000e+01 -4.500000e+00 0.000000e+00
2.600000e+01 -4.250000e+00 0.000000e+00
2.625000e+01 -4.500000e+00 0.000000e+00
2.550000e+01 -4.250000e+00 0.000000e+00
2.575000e+01 -4.500000e+00 0.000000e+00
2.500000e+01 -4.250000e+00 0.000000e+00
2.525000e+01 -4.500000e+00 0.000000e+00
2.450000e+01 -4.250000e+00 0.000000e+00
2.475000e+01 -4.500000e+00 0.000000e+00
2.400000e+01 -4.250000e+00 0.000000e+00
2.425000e+01 -4.500000e+00 0.000000e+00
2.350000e+01 -4.250000e+00 0.000000e+00
2.375000e+01 -4.500000e+00 0.000000e+00
2.300000e+01 -4.250000e+00 0.000000e+00
2.325000e+01 -4.500000e+00 0.000000e+00
2.250000e+01 -4.250000e+00 0.000000e+00
2.275000e+01 -4.500000e+00 0.000000e+00
2.200000e+01 -4.250000e+00 0.000000e+00
2.225000e+01 -4.500000e+00 0.000000e+00
2.150000e+01 -4.250000e+00 0.000000e+00
2.175000e+01 -4.500000e+00 0.000000e+00
2.100000e+01 -4.250000e+00 0.000000e+00
2.125000e+01 -4.500000e+00 0.000000e+00
2.050000e+01 -4.250000e+00 0.000000e+00
2.075000e+01 -4.500000e+00 0.000000e+00
2.000000e+01 -4.250000e+00 0.000000e+00
2.025000e+01 -4.500000e+00 0.000000e+00
1.950000e+01 -4.250000e+00 0.000000e+00
1.975000e+01 -4.500000e+00 0.000000e+00
1.900000e+01 -4.250000e+00 0.000000e+00
1.925000e+01 -4.500000e+00 0.000000e+00
1.850000e+01 -4.250000e+00 0.000000e+00
1.875000e+01 -4.500000e+00 0.000000e+00
1.800000e+01 -4.250000e+00 0.000000e+00
1.825000e+01 -4.500000e+00 0.000000e+00
1.750000e+01 -4.250000e+00 0.000000e+00
1.775000e+01 -4.500000e+00 0.000000e+00
1.700000e+01 -4.250000e+00 0.000000e+00
1.725000e+01 -4.500000e+00 0.000000e+00
1.650000e+01 -4.250000e+00 0.000000e+00
1.675000e+01 -4.500000e+00 0.000000e+00
1.600000e+01 -4.250000e+00 0.000000e+00
1.625000e+01 -4.500000e+00 0.000000e+00
1.550000e+01 -4.250000e+00 0.000000e+00
1.575000e+01 -4.500000e+00 0.000000e+00
1.500000e+01 -4.250000e+00 0.000000e+00
1.525000e+01 -4.500000e+00 0.000000e+00
2.950000e+01 -4.750000e+00 0.000000e+00
2.975000e+01 -5.000000e+00 0.000000e+00
3.000000e+01 -4.750000e+00 0.000000e+00
2.900000e+01 -4.750000e+00 0.000000e+00
2.925000e+01 -5.000000e+00 0.000000e+00
2.850000e+01 -4.750000e+00 0.000000e+00
2.875000e+01 -5.000000e+00 0.000000e+00
2.800000e+01 -4.750000e+00 0.000000e+00
2.825000e+01 -5.000000e+00 0.000000e+00
2.750000e+01 -4.750000e+00 0.000000e+00
2.775000e+01 -5.000000e+00 0.000000e+00
2.700000e+01 -4.750000e+00 0.000000e+00
2.725000e+01 -5.000000e+00 0.000000e+00
2.650000e+01 -4.750000e+00 0.000000e+00
2.675000e+01 -5.000000e+00 0.000000e+00
2.600000e+01 -4.750000e+00 0.000000e+00
2.625000e+01 -5.000000e+00 0.000000e+00
2.550000e+01 -4.750000e+00 0.000000e+00
2.575000e+01 -5.000000e+00 0.000000e+00
2.500000e+01 -4.750000e+00 0.000000e+00
2.525000e+01 -5.000000e+00 0.000000e+00
2.450000e+01 -4.750000e+00 0.000000e+00
2.475000e+01 -5.000000e+00 0.000000e+00
2.400000e+01 -4.750000e+00 0.000000e+00
2.425000e+01 -5.000000e+00 0.000000e+00
2.350000e+01 -4.750000e+00 0.000000e+00
2.375000e+01 -5.000000e+00 0.000000e+00
2.300000e+01 -4.750000e+00 0.000000e+00
2.325000e+01 -5.000000e+00 0.000000e+00
2.250000e+01 -4.750000e+00 0.000000e+00
2.275000e+01 -5.000000e+00 0.000000e+00
2.200000e+01 -4.750000e+00 0.000000e+00
2.225000e+01 -5.000000e+00 0.000000e+00
2.150000e+01 -4.750000e+00 0.000000e+00
2.175000e+01 -5.000000e+00 0.000000e+00
2.100000e+01 -4.750000e+00 0.000000e+00
2.125000e+01 -5.000000e+00 0.000000e+00
2.050000e+01 -4.750000e+00 0.000000e+00
2.075000e+01 -5.000000e+00 0.000000e+00
2.000000e+01 -4.750000e+00 0.000000e+00
2.025000e+01 -5.000000e+00 0.000000e+00
1.950000e+01 -4.750000e+00 0.000000e+00
1.975000e+01 -5.000000e+00 0.000000e+00
1.900000e+01 -4.750000e+00 0.000000e+00
1.925000e+01 -5.000000e+00 0.000000e+00
1.850000e+01 -4.750000e+00 0.000000e+00
1.875000e+01 -5.000000e+00 0.000000e+00
1.800000e+01 -4.750000e+00 0.000000e+00
1.825000e+01 -5.000000e+00 0.000000e+00
1.750000e+01 -4.750000e+00 0.000000e+00
1.775000e+01 -5.000000e+00 0.000000e+00
1.700000e+01 -4.750000e+00 0.000000e+00
1.725000e+01 -5.000000e+00 0.000000e+00
1.650000e+01 -4.750000e+00 0.000000e+00
1.675000e+01 -5.000000e+00 0.000000e+00
1.600000e+01 -4.750000e+00 0.000000e+00
1.625000e+01 -5.000000e+00 0.000000e+00
1.550000e+01 -4.750000e+00 0.000000e+00
1.575000e+01 -5.000000e+00 0.000000e+00
1.500000e+01 -4.750000e+00 0.000000e+00
1.525000e+01 -5.000000e+00 0.000000e+00
2.950000e+01 -5.250000e+00 0.000000e+00
2.975000e+01 -5.500000e+00 0.000000e+00
3.000000e+01 -5.250000e+00 0.000000e+00
2.900000e+01 -5.250000e+00 0.000000e+00
2.925000e+01 -5.500000e+00 0.000000e+00
2.850000e+01 -5.250000e+00 0.000000e+00
2.875000e+01 -5.500000e+00 0.000000e+00
2.800000e+01 -5.250000e+00 0.000000e+00
2.825000e+01 -5.500000e+00 0.000000e+00
2.750000e+01 -5.250000e+00 0.000000e+00
2.775000e+01 -5.500000e+00 0.000000e+00
2.700000e+01 -5.250000e+00 0.000000e+00
2.725000e+01 -5.500000e+00 0.000000e+00
2.650000e+01 -5.250000e+00 0.000000e+00
2.675000e+01 -5.500000e+00 0.000000e+00
2.600000e+01 -5.250000e+00 0.000000e+00
2.625000e+01 -5.500000e+00 0.000000e+00
2.550000e+01 -5.250000e+00 0.000000e+00
2.575000e+01 -5.500000e+00 0.000000e+00
2.500000e+01 -5.250000e+00 0.000000e+00
2.525000e+01 -5.500000e+00 0.000000e+00
2.450000e+01 -5.250000e+00 0.000000e+00
2.475000e+01 -5.500000e+00 0.000000e+00
2.400000e+01 -5.250000e+00 0.000000e+00
2.425000e+01 -5.500000e+00 0.000000e+00
2.350000e+01 -5.250000e+00 0.000000e+00
2.375000e+01 -5.500000e+00 0.000000e+00
2.300000e+01 -5.250000e+00 0.000000e+00
2.325000e+01 -5.500000e+00 0.000000e+00
2.250000e+01 -5.250000e+00 0.000000e+00
2.275000e+01 -5.500000e+00 0.000000e+00
2.200000e+01 -5.250000e+00 0.000000e+00
2.225000e+01 -5.500000e+00 0.000000e+00
2.150000e+01 -5.250000e+00 0.000000e+00
2.175000e+01 -5.500000e+00 0.000000e+00
2.100000e+01 -5.250000e+00 0.000000e+00
2.125000e+01 -5.500000e+00 0.000000e+00
2.050000e+01 -5.250000e+00 0.000000e+00
2.075000e+01 -5.500000e+00 0.000000e+00
2.000000e+01 -5.250000e+00 0.000000e+00
2.025000e+01 -5.500000e+00 0.000000e+00
1.950000e+01 -5.250000e+00 0.000000e+00
1.975000e+01 -5.500000e+00 0.000000e+00
1.900000e+01 -5.250000e+00 0.000000e+00
1.925000e+01 -5.500000e+00 0.000000e+00
1.850000e+01 -5.250000e+00 0.000000e+00
1.875000e+01 -5.500000e+00 0.000000e+00
1.800000e+01 -5.250000e+00 0.000000e+00
1.825000e+01 -5.500000e+00 0.000000e+00
1.750000e+01 -5.250000e+00 0.000000e+00
1.775000e+01 -5.500000e+00 0.000000e+00
1.700000e+01 -5.250000e+00 0.000000e+00
1.725000e+01 -5.500000e+00 0.000000e+00
1.650000e+01 -5.250000e+00 0.000000e+00
1.675000e+01 -5.500000e+00 0.000000e+00
1.600000e+01 -5.250000e+00 0.000000e+00
1.625000e+01 -5.500000e+00 0.000000e+00
1.550000e+01 -5.250000e+00 0.000000e+00
1.575000e+01 -5.500000e+00 0.000000e+00
1.500000e+01 -5.250000e+00 0.000000e+00
1.525000e+01 -5.500000e+00 0.000000e+00
2.950000e+01 -5.750000e+00 0.000000e+00
2.975000e+01 -6.000000e+00 0.000000e+00
3.000000e+01 -5.750000e+00 0.000000e+00
2.900000e+01 -5.750000e+00 0.000000e+00
2.925000e+01 -6.000000e+00 0.000000e+00
2.850000e+01 -5.750000e+00 0.000000e+00
2.875000e+01 -6.000000e+00 0.000000e+00
2.800000e+01 -5.750000e+00 0.000000e+00
2.825000e+01 -6.000000e+00 0.000000e+00
2.750000e+01 -5.750000e+00 0.000000e+00
2.775000e+01 -6.000000e+00 0.000000e+00
2.700000e+01 -5.750000e+00 0.000000e+00
2.725000e+01 -6.000000e+00 0.000000e+00
2.650000e+01 -5.750000e+00 0.000000e+00
2.675000e+01 -6.000000e+00 0.000000e+00
2.600000e+01 -5.750000e+00 0.000000e+00
2.625000e+01 -6.000000e+00 0.000000e+00
2.550000e+01 -5.750000e+00 0.000000e+00
2.575000e+01 -6.000000e+00 0.000000e+00
2.500000e+01 -5.750000e+00 0.000000e+00
2.525000e+01 -6.000000e+00 0.000000e+00
2.450000e+01 -5.750000e+00 0.000000e+00
2.475000e+01 -6.000000e+00 0.000000e+00
2.400000e+01 -5.750000e+00 0.000000e+00
2.425000e+01 -6.000000e+00 0.000000e+00
2.350000e+01 -5.750000e+00 0.000000e+00
2.375000e+01 -6.000000e+00 0.000000e+00
2.300000e+01 -5.750000e+00 0.000000e+00
2.325000e+01 -6.000000e+00 0.000000e+00
2.250000e+01 -5.750000e+00 0.000000e+00
2.275000e+01 -6.000000e+00 0.000000e+00
2.200000e+01 -5.750000e+00 0.000000e+00
2.225000e+01 -6.000000e+00 0.000000e+00
2.150000e+01 -5.750000e+00 0.000000e+00
2.175000e+01 -6.000000e+00 0.000000e+00
2.100000e+01 -5.750000e+00 0.000000e+00
2.125000e+01 -6.000000e+00 0.000000e+00
2.050000e+01 -5.750000e+00 0.000000e+00
2.075000e+01 -6.000000e+00 0.000000e+00
2.000000e+01 -5.750000e+00 0.000000e+00
2.025000e+01 -6.000000e+00 0.000000e+00
1.950000e+01 -5.750000e+00 0.000000e+00
1.975000e+01 -6.000000e+00 0.000000e+00
1.900000e+01 -5.750000e+00 0.000000e+00
1.925000e+01 -6.000000e+00 0.000000e+00
1.850000e+01 -5.750000e+00 0.000000e+00
1.875000e+01 -6.000000e+00 0.000000e+00
1.800000e+01 -5.750000e+00 0.000000e+00
1.825000e+01 -6.000000e+00 0.000000e+00
1.750000e+01 -5.750000e+00 0.000000e+00
1.775000e+01 -6.000000e+00 0.000000e+00
1.700000e+01 -5.750000e+00 0.000000e+00
1.725000e+01 -6.000000e+00 0.000000e+00
1.650000e+01 -5.750000e+00 0.000000e+00
1.675000e+01 -6.000000e+00 0.000000e+00
1.600000e+01 -5.750000e+00 0.000000e+00
1.625000e+01 -6.000000e+00 0.000000e+00
1.550000e+01 -5.750000e+00 0.000000e+00
1.575000e+01 -6.000000e+00 0.000000e+00
1.500000e+01 -5.750000e+00 0.000000e+00
1.525000e+01 -6.000000e+00 0.000000e+00
2.950000e+01 -6.250000e+00 0.000000e+00
2.975000e+01 -6.500000e+00 0.000000e+00
3.000000e+01 -6.250000e+00 0.000000e+00
2.900000e+01 -6.250000e+00 0.000000e+00
2.925000e+01 -6.500000e+00 0.000000e+00
2.850000e+01 -6.250000e+00 0.000000e+00
2.875000e+01 -6.500000e+00 0.000000e+00
2.800000e+01 -6.250000e+00 0.000000e+00
2.825000e+01 -6.500000e+00 0.000000e+00
2.750000e+01 -6.250000e+00 0.000000e+00
2.775000e+01 -6.500000e+00 0.000000e+00
2.700000e+01 -6.250000e+00 0.000000e+00
2.725000e+01 -6.500000e+00 0.000000e+00
2.650000e+01 -6.250000e+00 0.000000e+00
2.675000e+01 -6.500000e+00 0.000000e+00
2.600000e+01 -6.250000e+00 0.000000e+00
2.625000e+01 -6.500000e+00 0.000000e+00
2.550000e+01 -6.250000e+00 0.000000e+00
2.575000e+01 -6.500000e+00 0.000000e+00
2.500000e+01 -6.250000e+00 0.000000e+00
2.525000e+01 -6.500000e+00 0.000000e+00
2.450000e+01 -6.250000e+00 0.000000e+00
2.475000e+01 -6.500000e+00 0.000000e+00
2.400000e+01 -6.250000e+00 0.000000e+00
2.425000e+01 -6.500000e+00 0.000000e+00
2.350000e+01 -6.250000e+00 0.000000e+00
2.375000e+01 -6.500000e+00 0.000000e+00
2.300000e+01 -6.250000e+00 0.000000e+00
2.325000e+01 -6.500000e+00 0.000000e+00
2.250000e+01 -6.250000e+00 0.000000e+00
2.275000e+01 -6.500000e+00 0.000000e+00
2.200000e+01 -6.250000e+00 0.000000e+00
2.225000e+01 -6.500000e+00 0.000000e+00
2.150000e+01 -6.250000e+00 0.000000e+00
2.175000e+01 -6.500000e+00 0.000000e+00
2.100000e+01 -6.250000e+00 0.000000e+00
2.125000e+01 -6.500000e+00 0.000000e+00
2.050000e+01 -6.250000e+00 0.000000e+00
2.075000e+01 -6.500000e+00 0.000000e+00
2.000000e+01 -6.250000e+00 0.000000e+00
2.025000e+01 -6.500000e+00 0.000000e+00
1.950000e+01 -6.250000e+00 0.000000e+00
1.975000e+01 -6.500000e+00 0.000000e+00
1.900000e+01 -6.250000e+00 0.000000e+00
1.925000e+01 -6.500000e+00 0.000000e+00
1.850000e+01 -6.250000e+00 0.000000e+00
1.875000e+01 -6.500000e+00 0.000000e+00
1.800000e+01 -6.250000e+00 0.000000e+00
1.825000e+01 -6.500000e+00 0.000000e+00
1.750000e+01 -6.250000e+00 0.000000e+00
1.775000e+01 -6.500000e+00 0.000000e+00
1.700000e+01 -6.250000e+00 0.000000e+00
1.725000e+01 -6.500000e+00 0.000000e+00
1.650000e+01 -6.250000e+00 0.000000e+00
1.675000e+01 -6.500000e+00 0.000000e+00
1.600000e+01 -6.250000e+00 0.000000e+00
1.625000e+01 -6.500000e+00 0.000000e+00
1.550000e+01 -6.250000e+00 0.000000e+00
1.575000e+01 -6.500000e+00 0.000000e+00
1.500000e+01 -6.250000e+00 0.000000e+00
1.525000e+01 -6.500000e+00 0.000000e+00
2.950000e+01 -6.750000e+00 0.000000e+00
2.975000e+01 -7.000000e+00 0.000000e+00
3.000000e+01 -6.750000e+00 0.000000e+00
2.900000e+01 -6.750000e+00 0.000000e+00
2.925000e+01 -7.000000e+00 0.000000e+00
2.850000e+01 -6.750000e+00 0.000000e+00
2.875000e+01 -7.000000e+00 0.000000e+00
2.800000e+01 -6.750000e+00 0.000000e+00
2.825000e+01 -7.000000e+00 0.000000e+00
2.750000e+01 -6.750000e+00 0.000000e+00
2.775000e+01 -7.000000e+00 0.000000e+00
2.700000e+01 -6.750000e+00 0.000000e+00
2.725000e+01 -7.000000e+00 0.000000e+00
2.650000e+01 -6.750000e+00 0.000000e+00
2.675000e+01 -7.000000e+00 0.000000e+00
2.600000e+01 -6.750000e+00 0.000000e+00
2.625000e+01 -7.000000e+00 0.000000e+00
2.550000e+01 -6.750000e+00 0.000000e+00
2.575000e+01 -7.000000e+00 0.000000e+00
2.500000e+01 -6.750000e+00 0.000000e+00
2.525000e+01 -7.000000e+00 0.000000e+00
2.450000e+01 -6.750000e+00 0.000000e+00
2.475000e+01 -7.000000e+00 0.000000e+00
2.400000e+01 -6.750000e+00 0.000000e+00
2.425000e+01 -7.000000e+00 0.000000e+00
2.350000e+01 -6.750000e+00 0.000000e+00
2.375000e+01 -7.000000e+00 0.000000e+00
2.300000e+01 -6.750000e+00 0.000000e+00
2.325000e+01 -7.000000e+00 0.000000e+00
2.250000e+01 -6.750000e+00 0.000000e+00
2.275000e+01 -7.000000e+00 0.000000e+00
2.200000e+01 -6.750000e+00 0.000000e+00
2.225000e+01 -7.000000e+00 0.000000e+00
2.150000e+01 -6.750000e+00 0.000000e+00
2.175000e+01 -7.000000e+00 0.000000e+00
2.100000e+01 -6.750000e+00 0.000000e+00
2.125000e+01 -7.000000e+00 0.000000e+00
2.050000e+01 -6.750000e+00 0.000000e+00
2.075000e+01 -7.000000e+00 0.000000e+00
2.000000e+01 -6.750000e+00 0.000000e+00
2.025000e+01 -7.000000e+00 0.000000e+00
1.950000e+01 -6.750000e+00 0.000000e+00
1.975000e+01 -7.000000e+00 0.000000e+00
1.900000e+01 -6.750000e+00 0.000000e+00
1.925000e+01 -7.000000e+00 0.000000e+00
1.850000e+01 -6.750000e+00 0.000000e+00
1.875000e+01 -7.000000e+00 0.000000e+00
1.800000e+01 -6.750000e+00 0.000000e+00
1.825000e+01 -7.000000e+00 0.000000e+00
1.750000e+01 -6.750000e+00 0.000000e+00
1.775000e+01 -7.000000e+00 0.000000e+00
1.700000e+01 -6.750000e+00 0.000000e+00
1.725000e+01 -7.000000e+00 0.000000e+00
1.650000e+01 -6.750000e+00 0.000000e+00
1.675000e+01 -7.000000e+00 0.000000e+00
1.600000e+01 -6.750000e+00 0.000000e+00
1.625000e+01 -7.000000e+00 0.000000e+00
1.550000e+01 -6.750000e+00 0.000000e+00
1.575000e+01 -7.000000e+00 0.000000e+00
1.500000e+01 -6.750000e+00 0.000000e+00
1.525000e+01 -7.000000e+00 0.000000e+00
2.950000e+01 -7.250000e+00 0.000000e+00
2.975000e+01 -7.500000e+00 0.000000e+00
3.000000e+01 -7.250000e+00 0.000000e+00
2.900000e+01 -7.250000e+00 0.000000e+00
2.925000e+01 -7.500000e+00 0.000000e+00
2.850000e+01 -7.250000e+00 0.000000e+00
2.875000e+01 -7.500000e+00 0.000000e+00
2.800000e+01 -7.250000e+00 0.000000e+00
2.825000e+01 -7.500000e+00 0.000000e+00
2.750000e+01 -7.250000e+00 0.000000e+00
2.775000e+01 -7.500000e+00 0.000000e+00
2.700000e+01 -7.250000e+00 0.000000e+00
2.725000e+01 -7.500000e+00 0.000000e+00
2.650000e+01 -7.250000e+00 0.000000e+00
2.675000e+01 -7.500000e+00 0.000000e+00
2.600000e+01 -7.250000e+00 0.000000e+00
2.625000e+01 -7.500000e+00 0.000000e+00
2.550000e+01 -7.250000e+00 0.000000e+00
2.575000e+01 -7.500000e+00 0.000000e+00
2.500000e+01 -7.250000e+00 0.000000e+00
2.525000e+01 -7.500000e+00 0.000000e+00
2.450000e+01 -7.250000e+00 0.000000e+00
2.475000e+01 -7.500000e+00 0.000000e+00
2.400000e+01 -7.250000e+00 0.000000e+00
2.425000e+01 -7.500000e+00 0.000000e+00
2.350000e+01 -7.250000e+00 0.000000e+00
2.375000e+01 -7.500000e+00 0.000000e+00
2.300000e+01 -7.250000e+00 0.000000e+00
2.325000e+01 -7.500000e+00 0.000000e+00
2.250000e+01 -7.250000e+00 0.000000e+00
2.275000e+01 -7.500000e+00 0.000000e+00
2.200000e+01 -7.250000e+00 0.000000e+00
2.225000e+01 -7.500000e+00 0.000000e+00
2.150000e+01 -7.250000e+00 0.000000e+00
2.175000e+01 -7.500000e+00 0.000000e+00
2.100000e+01 -7.250000e+00 0.000000e+00
2.125000e+01 -7.500000e+00 0.000000e+00
2.050000e+01 -7.250000e+00 0.000000e+00
2.075000e+01 -7.500000e+00 0.000000e+00
2.000000e+01 -7.250000e+00 0.000000e+00
2.025000e+01 -7.500000e+00 0.000000e+00
1.950000e+01 -7.250000e+00 0.000000e+00
1.975000e+01 -7.500000e+00 0.000000e+00
1.900000e+01 -7.250000e+00 0.000000e+00
1.925000e+01 -7.500000e+00 0.000000e+00
1.850000e+01 -7.250000e+00 0.000000e+00
1.875000e+01 -7.500000e+00 0.000000e+00
1.800000e+01 -7.250000e+00 0.000000e+00
1.825000e+01 -7.500000e+00 0.000000e+00
1.750000e+01 -7.250000e+00 0.000000e+00
1.775000e+01 -7.500000e+00 0.000000e+00
1.700000e+01 -7.250000e+00 0.000000e+00
1.725000e+01 -7.500000e+00 0.000000e+00
1.650000e+01 -7.250000e+00 0.000000e+00
1.675000e+01 -7.500000e+00 0.000000e+00
1.600000e+01 -7.250000e+00 0.000000e+00
1.625000e+01 -7.500000e+00 0.000000e+00
1.550000e+01 -7.250000e+00 0.000000e+00
1.575000e+01 -7.500000e+00 0.000000e+00
1.500000e+01 -7.250000e+00 0.000000e+00
1.525000e+01 -7.500000e+00 0.000000e+00
2.950000e+01 -7.750000e+00 0.000000e+00
2.975000e+01 -8.000000e+00 0.000000e+00
3.000000e+01 -7.750000e+00 0.000000e+00
2.900000e+01 -7.750000e+00 0.000000e+00
2.925000e+01 -8.000000e+00 0.000000e+00
2.850000e+01 -7.750000e+00 0.000000e+00
2.875000e+01 -8.000000e+00 0.000000e+00
2.800000e+01 -7.750000e+00 0.000000e+00
2.825000e+01 -8.000000e+00 0.000000e+00
2.750000e+01 -7.750000e+00 0.000000e+00
2.775000e+01 -8.000000e+00 0.000000e+00
2.700000e+01 -7.750000e+00 0.000000e+00
2.725000e+01 -8.000000e+00 0.000000e+00
2.650000e+01 -7.750000e+00 0.000000e+00
2.675000e+01 -8.000000e+00 0.000000e+00
2.600000e+01 -7.750000e+00 0.000000e+00
2.625000e+01 -8.000000e+00 0.000000e+00
2.550000e+01 -7.750000e+00 0.000000e+00
2.575000e+01 -8.000000e+00 0.000000e+00
2.500000e+01 -7.750000e+00 0.000000e+00
2.525000e+01 -8.000000e+00 0.000000e+00
2.450000e+01 -7.750000e+00 0.000000e+00
2.475000e+01 -8.000000e+00 0.000000e+00
2.400000e+01 -7.750000e+00 0.000000e+00
2.425000e+01 -8.000000e+00 0.000000e+00
2.350000e+01 -7.750000e+00 0.000000e+00
2.375000e+01 -8.000000e+00 0.000000e+00
2.300000e+01 -7.750000e+00 0.000000e+00
2.325000e+01 -8.000000e+00 0.000000e+00
2.250000e+01 -7.750000e+00 0.000000e+00
2.275000e+01 -8.000000e+00 0.000000e+00
2.200000e+01 -7.750000e+00 0.000000e+00
2.225000e+01 -8.000000e+00 0.000000e+00
2.150000e+01 -7.750000e+00 0.000000e+00
2.175000e+01 -8.000000e+00 0.000000e+00
2.100000e+01 -7.750000e+00 0.000000e+00
2.125000e+01 -8.000000e+00 0.000000e+00
2.050000e+01 -7.750000e+00 0.000000e+00
2.075000e+01 -8.000000e+00 0.000000e+00
2.000000e+01 -7.750000e+00 0.000000e+00
2.025000e+01 -8.000000e+00 0.000000e+00
1.950000e+01 -7.750000e+00 0.000000e+00
1.975000e+01 -8.000000e+00 0.000000e+00
1.900000e+01 -7.750000e+00 0.000000e+00
1.925000e+01 -8.000000e+00 0.000000e+00
1.850000e+01 -7.750000e+00 0.000000e+00
1.875000e+01 -8.000000e+00 0.000000e+00
1.800000e+01 -7.750000e+00 0.000000e+00
1.825000e+01 -8.000000e+00 0.000000e+00
1.750000e+01 -7.750000e+00 0.000000e+00
1.775000e+01 -8.000000e+00 0.000000e+00
1.700000e+01 -7.750000e+00 0.000000e+00
1.725000e+01 -8.000000e+00 0.000000e+00
1.650000e+01 -7.750000e+00 0.000000e+00
1.675000e+01 -8.000000e+00 0.000000e+00
1.600000e+01 -7.750000e+00 0.000000e+00
1.625000e+01 -8.000000e+00 0.000000e+00
1.550000e+01 -7.750000e+00 0.000000e+00
1.575000e+01 -8.000000e+00 0.000000e+00
1.500000e+01 -7.750000e+00 0.000000e+00
1.525000e+01 -8.000000e+00 0.000000e+00
2.950000e+01 -8.250000e+00 0.000000e+00
2.975000e+01 -8.500000e+00 0.000000e+00
3.000000e+01 -8.250000e+00 0.000000e+00
2.900000e+01 -8.250000e+00 0.000000e+00
2.925000e+01 -8.500000e+00 0.000000e+00
2.850000e+01 -8.250000e+00 0.000000e+00
2.875000e+01 -8.500000e+00 0.000000e+00
2.800000e+01 -8.250000e+00 0.000000e+00
2.825000e+01 -8.500000e+00 0.000000e+00
2.750000e+01 -8.250000e+00 0.000000e+00
2.775000e+01 -8.500000e+00 0.000000e+00
2.700000e+01 -8.250000e+00 0.000000e+00
2.725000e+01 -8.500000e+00 0.000000e+00
2.650000e+01 -8.250000e+00 0.000000e+00
2.675000e+01 -8.500000e+00 0.000000e+00
2.600000e+01 -8.250000e+00 0.000000e+00
2.625000e+01 -8.500000e+00 0.000000e+00
2.550000e+01 -8.250000e+00 0.000000e+00
2.575000e+01 -8.500000e+00 0.000000e+00
2.500000e+01 -8.250000e+00 0.000000e+00
2.525000e+01 -8.500000e+00 0.000000e+00
2.450000e+01 -8.250000e+00 0.000000e+00
2.475000e+01 -8.500000e+00 0.000000e+00
2.400000e+01 -8.250000e+00 0.000000e+00
2.425000e+01 -8.500000e+00 0.000000e+00
2.350000e+01 -8.250000e+00 0.000000e+00
2.375000e+01 -8.500000e+00 0.000000e+00
2.300000e+01 -8.250000e+00 0.000000e+00
2.325000e+01 -8.500000e+00 0.000000e+00
2.250000e+01 -8.250000e+00 0.000000e+00
2.275000e+01 -8.500000e+00 0.000000e+00
2.200000e+01 -8.250000e+00 0.000000e+00
2.225000e+01 -8.500000e+00 0.000000e+00
2.150000e+01 -8.250000e+00 0.000000e+00
2.175000e+01 -8.500000e+00 0.000000e+00
2.100000e+01 -8.250000e+00 0.000000e+00
2.125000e+01 -8.500000e+00 0.000000e+00
2.050000e+01 -8.250000e+00 0.000000e+00
2.075000e+01 -8.500000e+00 0.000000e+00
2.000000e+01 -8.250000e+00 0.000000e+00
2.025000e+01 -8.500000e+00 0.000000e+00
1.950000e+01 -8.250000e+00 0.000000e+00
1.975000e+01 -8.500000e+00 0.000000e+00
1.900000e+01 -8.250000e+00 0.000000e+00
1.925000e+01 -8.500000e+00 0.000000e+00
1.850000e+01 -8.250000e+00 0.000000e+00
1.875000e+01 -8.500000e+00 0.000000e+00
1.800000e+01 -8.250000e+00 0.000000e+00
1.825000e+01 -8.500000e+00 0.000000e+00
1.750000e+01 -8.250000e+00 0.000000e+00
1.775000e+01 -8.500000e+00 0.000000e+00
1.700000e+01 -8.250000e+00 0.000000e+00
1.725000e+01 -8.500000e+00 0.000000e+00
1.650000e+01 -8.250000e+00 0.000000e+00
1.675000e+01 -8.500000e+00 0.000000e+00
1.600000e+01 -8.250000e+00 0.000000e+00
1.625000e+01 -8.500000e+00 0.000000e+00
1.550000e+01 -8.250000e+00 0.000000e+00
1.575000e+01 -8.500000e+00 0.000000e+00
1.500000e+01 -8.250000e+00 0.000000e+00
1.525000e+01 -8.500000e+00 0.000000e+00
2.950000e+01 -8.750000e+00 0.000000e+00
2.975000e+01 -9.000000e+00 0.000000e+00
3.000000e+01 -8.750000e+00 0.000000e+00
2.900000e+01 -8.750000e+00 0.000000e+00
2.925000e+01 -9.000000e+00 0.000000e+00
2.850000e+01 -8.750000e+00 0.000000e+00
2.875000e+01 -9.000000e+00 0.000000e+00
2.800000e+01 -8.750000e+00 0.000000e+00
2.825000e+01 -9.000000e+00 0.000000e+00
2.750000e+01 -8.750000e+00 0.000000e+00
2.775000e+01 -9.000000e+00 0.000000e+00
2.700000e+01 -8.750000e+00 0.000000e+00
2.725000e+01 -9.000000e+00 0.000000e+00
2.650000e+01 -8.750000e+00 0.000000e+00
2.675000e+01 -9.000000e+00 0.000000e+00
2.600000e+01 -8.750000e+00 0.000000e+00
2.625000e+01 -9.000000e+00 0.000000e+00
2.550000e+01 -8.750000e+00 0.000000e+00
2.575000e+01 -9.000000e+00 0.000000e+00
2.500000e+01 -8.750000e+00 0.000000e+00
2.525000e+01 -9.000000e+00 0.000000e+00
2.450000e+01 -8.750000e+00 0.000000e+00
2.475000e+01 -9.000000e+00 0.000000e+00
2.400000e+01 -8.750000e+00 0.000000e+00
2.425000e+01 -9.000000e+00 0.000000e+00
2.350000e+01 -8.750000e+00 0.000000e+00
2.375000e+01 -9.000000e+00 0.000000e+00
2.300000e+01 -8.750000e+00 0.000000e+00
2.325000e+01 -9.000000e+00 0.000000e+00
2.250000e+01 -8.750000e+00 0.000000e+00
2.275000e+01 -9.000000e+00 0.000000e+00
2.200000e+01 -8.750000e+00 0.000000e+00
2.225000e+01 -9.000000e+00 0.000000e+00
2.150000e+01 -8.750000e+00 0.000000e+00
2.175000e+01 -9.000000e+00 0.000000e+00
2.100000e+01 -8.750000e+00 0.000000e+00
2.125000e+01 -9.000000e+00 0.000000e+00
2.050000e+01 -8.750000e+00 0.000000e+00
2.075000e+01 -9.000000e+00 0.000000e+00
2.000000e+01 -8.750000e+00 0.000000e+00
2.025000e+01 -9.000000e+00 0.000000e+00
1.950000e+01 -8.750000e+00 0.000000e+00
1.975000e+01 -9.000000e+00 0.000000e+00
1.900000e+01 -8.750000e+00 0.000000e+00
1.925000e+01 -9.000000e+00 0.000000e+00
1.850000e+01 -8.750000e+00 0.000000e+00
1.875000e+01 -9.000000e+00 0.000000e+00
1.800000e+01 -8.750000e+00 0.000000e+00
1.825000e+01 -9.000000e+00 0.000000e+00
1.750000e+01 -8.750000e+00 0.000000e+00
1.775000e+01 -9.000000e+00 0.000000e+00
1.700000e+01 -8.750000e+00 0.000000e+00
1.725000e+01 -9.000000e+00 0.000000e+00
1.650000e+01 -8.750000e+00 0.000000e+00
1.675000e+01 -9.000000e+00 0.000000e+00
1.600000e+01 -8.750000e+00 0.000000e+00
1.625000e+01 -9.000000e+00 0.000000e+00
1.550000e+01 -8.750000e+00 0.000000e+00
1.575000e+01 -9.000000e+00 0.000000e+00
1.500000e+01 -8.750000e+00 0.000000e+00
1.525000e+01 -9.000000e+00 0.000000e+00
2.950000e+01 -9.250000e+00 0.000000e+00
2.975000e+01 -9.500000e+00 0.000000e+00
3.000000e+01 -9.250000e+00 0.000000e+00
2.900000e+01 -9.250000e+00 0.000000e+00
2.925000e+01 -9.500000e+00 0.000000e+00
2.850000e+01 -9.250000e+00 0.000000e+00
2.875000e+01 -9.500000e+00 0.000000e+00
2.800000e+01 -9.250000e+00 0.000000e+00
2.825000e+01 -9.500000e+00 0.000000e+00
2.750000e+01 -9.250000e+00 0.000000e+00
2.775000e+01 -9.500000e+00 0.000000e+00
2.700000e+01 -9.250000e+00 0.000000e+00
2.725000e+01 -9.500000e+00 0.000000e+00
2.650000e+01 -9.250000e+00 0.000000e+00
2.675000e+01 -9.500000e+00 0.000000e+00
2.600000e+01 -9.250000e+00 0.000000e+00
2.625000e+01 -9.500000e+00 0.000000e+00
2.550000e+01 -9.250000e+00 0.000000e+00
2.575000e+01 -9.500000e+00 0.000000e+00
2.500000e+01 -9.250000e+00 0.000000e+00
2.525000e+01 -9.500000e+00 0.000000e+00
2.450000e+01 -9.250000e+00 0.000000e+00
2.475000e+01 -9.500000e+00 0.000000e+00
2.400000e+01 -9.250000e+00 0.000000e+00
2.425000e+01 -9.500000e+00 0.000000e+00
2.350000e+01 -9.250000e+00 0.000000e+00
2.375000e+01 -9.500000e+00 0.000000e+00
2.300000e+01 -9.250000e+00 0.000000e+00
2.325000e+01 -9.500000e+00 0.000000e+00
2.250000e+01 -9.250000e+00 0.000000e+00
2.275000e+01 -9.500000e+00 0.000000e+00
2.200000e+01 -9.250000e+00 0.000000e+00
2.225000e+01 -9.500000e+00 0.000000e+00
2.150000e+01 -9.250000e+00 0.000000e+00
2.175000e+01 -9.500000e+00 0.000000e+00
2.100000e+01 -9.250000e+00 0.000000e+00
2.125000e+01 -9.500000e+00 0.000000e+00
2.050000e+01 -9.250000e+00 0.000000e+00
2.075000e+01 -9.500000e+00 0.000000e+00
2.000000e+01 -9.250000e+00 0.000000e+00
2.025000e+01 -9.500000e+00 0.000000e+00
1.950000e+01 -9.250000e+00 0.000000e+00
1.975000e+01 -9.500000e+00 0.000000e+00
1.900000e+01 -9.250000e+00 0.000000e+00
1.925000e+01 -9.500000e+00 0.000000e+00
1.850000e+01 -9.250000e+00 0.000000e+00
1.875000e+01 -9.500000e+00 0.000000e+00
1.800000e+01 -9.250000e+00 0.000000e+00
1.825000e+01 -9.500000e+00 0.000000e+00
1.750000e+01 -9.250000e+00 0.000000e+00
1.775000e+01 -9.500000e+00 0.000000e+00
1.700000e+01 -9.250000e+00 0.000000e+00
1.725000e+01 -9.500000e+00 0.000000e+00
1.650000e+01 -9.250000e+00 0.000000e+00
1.675000e+01 -9.500000e+00 0.000000e+00
1.600000e+01 -9.250000e+00 0.000000e+00
1.625000e+01 -9.500000e+00 0.000000e+00
1.550000e+01 -9.250000e+00 0.000000e+00
1.575000e+01 -9.500000e+00 0.000000e+00
1.500000e+01 -9.250000e+00 0.000000e+00
1.525000e+01 -9.500000e+00 0.000000e+00
2.950000e+01 -9.750000e+00 0.000000e+00
2.975000e+01 -1.000000e+01 0.000000e+00
3.000000e+01 -9.750000e+00 0.000000e+00
2.900000e+01 -9.750000e+00 0.000000e+00
2.925000e+01 -1.000000e+01 0.000000e+00
2.850000e+01 -9.750000e+00 0.000000e+00
2.875000e+01 -1.000000e+01 0.000000e+00
2.800000e+01 -9.750000e+00 0.000000e+00
2.825000e+01 -1.000000e+01 0.000000e+00
2.750000e+01 -9.750000e+00 0.000000e+00
2.775000e+01 -1.000000e+01 0.000000e+00
2.700000e+01 -9.750000e+00 0.000000e+00
2.725000e+01 -1.000000e+01 0.000000e+00
2.650000e+01 -9.750000e+00 0.000000e+00
2.675000e+01 -1.000000e+01 0.000000e+00
2.600000e+01 -9.750000e+00 0.000000e+00
2.625000e+01 -1.000000e+01 0.000000e+00
2.550000e+01 -9.750000e+00 0.000000e+00
2.575000e+01 -1.000000e+01 0.000000e+00
2.500000e+01 -9.750000e+00 0.000000e+00
2.525000e+01 -1.000000e+01 0.000000e+00
2.450000e+01 -9.750000e+00 0.000000e+00
2.475000e+01 -1.000000e+01 0.000000e+00
2.400000e+01 -9.750000e+00 0.000000e+00
2.425000e+01 -1.000000e+01 0.000000e+00
2.350000e+01 -9.750000e+00 0.000000e+00
2.375000e+01 -1.000000e+01 0.000000e+00
2.300000e+01 -9.750000e+00 0.000000e+00
2.325000e+01 -1.000000e+01 0.000000e+00
2.250000e+01 -9.750000e+00 0.000000e+00
2.275000e+01 -1.000000e+01 0.000000e+00
2.200000e+01 -9.750000e+00 0.000000e+00
2.225000e+01 -1.000000e+01 0.000000e+00
2.150000e+01 -9.750000e+00 0.000000e+00
2.175000e+01 -1.000000e+01 0.000000e+00
2.100000e+01 -9.750000e+00 0.000000e+00
2.125000e+01 -1.000000e+01 0.000000e+00
2.050000e+01 -9.750000e+00 0.000000e+00
2.075000e+01 -1.000000e+01 0.000000e+00
2.000000e+01 -9.750000e+00 0.000000e+00
2.025000e+01 -1.000000e+01 0.000000e+00
1.950000e+01 -9.750000e+00 0.000000e+00
1.975000e+01 -1.000000e+01 0.000000e+00
1.900000e+01 -9.750000e+00 0.000000e+00
1.925000e+01 -1.000000e+01 0.000000e+00
1.850000e+01 -9.750000e+00 0.000000e+00
1.875000e+01 -1.000000e+01 0.000000e+00
1.800000e+01 -9.750000e+00 0.000000e+00
1.825000e+01 -1.000000e+01 0.000000e+00
1.750000e+01 -9.750000e+00 0.000000e+00
1.775000e+01 -1.000000e+01 0.000000e+00
1.700000e+01 -9.750000e+00 0.000000e+00
1.725000e+01 -1.000000e+01 0.000000e+00
1.650000e+01 -9.750000e+00 0.000000e+00
1.675000e+01 -1.000000e+01 0.000000e+00
1.600000e+01 -9.750000e+00 0.000000e+00
1.625000e+01 -1.000000e+01 0.000000e+00
1.550000e+01 -9.750000e+00 0.000000e+00
1.575000e+01 -1.000000e+01 0.000000e+00
1.500000e+01 -9.750000e+00 0.000000e+00
1.525000e+01 -1.000000e+01 0.000000e+00
2.950000e+01 -1.025000e+01 0.000000e+00
2.975000e+01 -1.050000e+01 0.000000e+00
3.000000e+01 -1.025000e+01 0.000000e+00
2.900000e+01 -1.025000e+01 0.000000e+00
2.925000e+01 -1.050000e+01 0.000000e+00
2.850000e+01 -1.025000e+01 0.000000e+00
2.875000e+01 -1.050000e+01 0.000000e+00
2.800000e+01 -1.025000e+01 0.000000e+00
2.825000e+01 -1.050000e+01 0.000000e+00
2.750000e+01 -1.025000e+01 0.000000e+00
2.775000e+01 -1.050000e+01 0.000000e+00
2.700000e+01 -1.025000e+01 0.000000e+00
2.725000e+01 -1.050000e+01 0.000000e+00
2.650000e+01 -1.025000e+01 0.000000e+00
2.675000e+01 -1.050000e+01 0.000000e+00
2.600000e+01 -1.025000e+01 0.000000e+00
2.625000e+01 -1.050000e+01 0.000000e+00
2.550000e+01 -1.025000e+01 0.000000e+00
2.575000e+01 -1.050000e+01 0.000000e+00
2.500000e+01 -1.025000e+01 0.000000e+00
2.525000e+01 -1.050000e+01 0.000000e+00
2.450000e+01 -1.025000e+01 0.000000e+00
2.475000e+01 -1.050000e+01 0.000000e+00
2.400000e+01 -1.025000e+01 0.000000e+00
2.425000e+01 -1.050000e+01 0.000000e+00
2.350000e+01 -1.025000e+01 0.000000e+00
2.375000e+01 -1.050000e+01 0.000000e+00
2.300000e+01 -1.025000e+01 0.000000e+00
2.325000e+01 -1.050000e+01 0.000000e+00
2.250000e+01 -1.025000e+01 0.000000e+00
2.275000e+01 -1.050000e+01 0.000000e+00
2.200000e+01 -1.025000e+01 0.000000e+00
2.225000e+01 -1.050000e+01 0.000000e+00
2.150000e+01 -1.025000e+01 0.000000e+00
2.175000e+01 -1.050000e+01 0.000000e+00
2.100000e+01 -1.025000e+01 0.000000e+00
2.125000e+01 -1.050000e+01 0.000000e+00
2.050000e+01 -1.025000e+01 0.000000e+00
2.075000e+01 -1.050000e+01 0.000000e+00
2.000000e+01 -1.025000e+01 0.000000e+00
2.025000e+01 -1.050000e+01 0.000000e+00
1.950000e+01 -1.025000e+01 0.000000e+00
1.975000e+01 -1.050000e+01 0.000000e+00
1.900000e+01 -1.025000e+01 0.000000e+00
1.925000e+01 -1.050000e+01 0.000000e+00
1.850000e+01 -1.025000e+01 0.000000e+00
1.875000e+01 -1.050000e+01 0.000000e+00
1.800000e+01 -1.025000e+01 0.000000e+00
1.825000e+01 -1.050000e+01 0.000000e+00
1.750000e+01 -1.025000e+01 0.000000e+00
1.775000e+01 -1.050000e+01 0.000000e+00
1.700000e+01 -1.025000e+01 0.000000e+00
1.725000e+01 -1.050000e+01 0.000000e+00
1.650000e+01 -1.025000e+01 0.000000e+00
1.675000e+01 -1.050000e+01 0.000000e+00
1.600000e+01 -1.025000e+01 0.000000e+00
1.625000e+01 -1.050000e+01 0.000000e+00
1.550000e+01 -1.025000e+01 0.000000e+00
1.575000e+01 -1.050000e+01 0.000000e+00
1.500000e+01 -1.025000e+01 0.000000e+00
1.525000e+01 -1.050000e+01 0.000000e+00
2.950000e+01 -1.075000e+01 0.000000e+00
2.975000e+01 -1.100000e+01 0.000000e+00
3.000000e+01 -1.075000e+01 0.000000e+00
2.900000e+01 -1.075000e+01 0.000000e+00
2.925000e+01 -1.100000e+01 0.000000e+00
2.850000e+01 -1.075000e+01 0.000000e+00
2.875000e+01 -1.100000e+01 0.000000e+00
2.800000e+01 -1.075000e+01 0.000000e+00
2.825000e+01 -1.100000e+01 0.000000e+00
2.750000e+01 -1.075000e+01 0.000000e+00
2.775000e+01 -1.100000e+01 0.000000e+00
2.700000e+01 -1.075000e+01 0.000000e+00
2.725000e+01 -1.100000e+01 0.000000e+00
2.650000e+01 -1.075000e+01 0.000000e+00
2.675000e+01 -1.100000e+01 0.000000e+00
2.600000e+01 -1.075000e+01 0.000000e+00
2.625000e+01 -1.100000e+01 0.000000e+00
2.550000e+01 -1.075000e+01 0.000000e+00
2.575000e+01 -1.100000e+01 0.000000e+00
2.500000e+01 -1.075000e+01 0.000000e+00
2.525000e+01 -1.100000e+01 0.000000e+00
2.450000e+01 -1.075000e+01 0.000000e+00
2.475000e+01 -1.100000e+01 0.000000e+00
2.400000e+01 -1.075000e+01 0.000000e+00
2.425000e+01 -1.100000e+01 0.000000e+00
2.350000e+01 -1.075000e+01 0.000000e+00
2.375000e+01 -1.100000e+01 0.000000e+00
2.300000e+01 -1.075000e+01 0.000000e+00
2.325000e+01 -1.100000e+01 0.000000e+00
2.250000e+01 -1.075000e+01 0.000000e+00
2.275000e+01 -1.100000e+01 0.000000e+00
2.200000e+01 -1.075000e+01 0.000000e+00
2.225000e+01 -1.100000e+01 0.000000e+00
2.150000e+01 -1.075000e+01 0.000000e+00
2.175000e+01 -1.100000e+01 0.000000e+00
2.100000e+01 -1.075000e+01 0.000000e+00
2.125000e+01 -1.100000e+01 0.000000e+00
2.050000e+01 -1.075000e+01 0.000000e+00
2.075000e+01 -1.100000e+01 0.000000e+00
2.000000e+01 -1.075000e+01 0.000000e+00
2.025000e+01 -1.100000e+01 0.000000e+00
1.950000e+01 -1.075000e+01 0.000000e+00
1.975000e+01 -1.100000e+01 0.000000e+00
1.900000e+01 -1.075000e+01 0.000000e+00
1.925000e+01 -1.100000e+01 0.000000e+00
1.850000e+01 -1.075000e+01 0.000000e+00
1.875000e+01 -1.100000e+01 0.000000e+00
1.800000e+01 -1.075000e+01 0.000000e+00
1.825000e+01 -1.100000e+01 0.000000e+00
1.750000e+01 -1.075000e+01 0.000000e+00
1.775000e+01 -1.100000e+01 0.000000e+00
1.700000e+01 -1.075000e+01 0.000000e+00
1.725000e+01 -1.100000e+01 0.000000e+00
1.650000e+01 -1.075000e+01 0.000000e+00
1.675000e+01 -1.100000e+01 0.000000e+00
1.600000e+01 -1.075000e+01 0.000000e+00
1.625000e+01 -1.100000e+01 0.000000e+00
1.550000e+01 -1.075000e+01 0.000000e+00
1.575000e+01 -1.100000e+01 0.000000e+00
1.500000e+01 -1.075000e+01 0.000000e+00
1.525000e+01 -1.100000e+01 0.000000e+00
2.950000e+01 -1.125000e+01 0.000000e+00
2.975000e+01 -1.150000e+01 0.000000e+00
3.000000e+01 -1.125000e+01 0.000000e+00
2.900000e+01 -1.125000e+01 0.000000e+00
2.925000e+01 -1.150000e+01 0.000000e+00
2.850000e+01 -1.125000e+01 0.000000e+00
2.875000e+01 -1.150000e+01 0.000000e+00
2.800000e+01 -1.125000e+01 0.000000e+00
2.825000e+01 -1.150000e+01 0.000000e+00
2.750000e+01 -1.125000e+01 0.000000e+00
2.775000e+01 -1.150000e+01 0.000000e+00
2.700000e+01 -1.125000e+01 0.000000e+00
2.725000e+01 -1.150000e+01 0.000000e+00
2.650000e+01 -1.125000e+01 0.000000e+00
2.675000e+01 -1.150000e+01 0.000000e+00
2.600000e+01 -1.125000e+01 0.000000e+00
2.625000e+01 -1.150000e+01 0.000000e+00
2.550000e+01 -1.125000e+01 0.000000e+00
2.575000e+01 -1.150000e+01 0.000000e+00
2.500000e+01 -1.125000e+01 0.000000e+00
2.525000e+01 -1.150000e+01 0.000000e+00
2.450000e+01 -1.125000e+01 0.000000e+00
2.475000e+01 -1.150000e+01 0.000000e+00
2.400000e+01 -1.125000e+01 0.000000e+00
2.425000e+01 -1.150000e+01 0.000000e+00
2.350000e+01 -1.125000e+01 0.000000e+00
2.375000e+01 -1.150000e+01 0.000000e+00
2.300000e+01 -1.125000e+01 0.000000e+00
2.325000e+01 -1.150000e+01 0.000000e+00
2.250000e+01 -1.125000e+01 0.000000e+00
2.275000e+01 -1.150000e+01 0.000000e+00
2.200000e+01 -1.125000e+01 0.000000e+00
2.225000e+01 -1.150000e+01 0.000000e+00
2.150000e+01 -1.125000e+01 0.000000e+00
2.175000e+01 -1.150000e+01 0.000000e+00
2.100000e+01 -1.125000e+01 0.000000e+00
2.125000e+01 -1.150000e+01 0.000000e+00
2.050000e+01 -1.125000e+01 0.000000e+00
2.075000e+01 -1.150000e+01 0.000000e+00
2.000000e+01 -1.125000e+01 0.000000e+00
2.025000e+01 -1.150000e+01 0.000000e+00
1.950000e+01 -1.125000e+01 0.000000e+00
1.975000e+01 -1.150000e+01 0.000000e+00
1.900000e+01 -1.125000e+01 0.000000e+00
1.925000e+01 -1.150000e+01 0.000000e+00
1.850000e+01 -1.125000e+01 0.000000e+00
1.875000e+01 -1.150000e+01 0.000000e+00
1.800000e+01 -1.125000e+01 0.000000e+00
1.825000e+01 -1.150000e+01 0.000000e+00
1.750000e+01 -1.125000e+01 0.000000e+00
1.775000e+01 -1.150000e+01 0.000000e+00
1.700000e+01 -1.125000e+01 0.000000e+00
1.725000e+01 -1.150000e+01 0.000000e+00
1.650000e+01 -1.125000e+01 0.000000e+00
1.675000e+01 -1.150000e+01 0.000000e+00
1.600000e+01 -1.125000e+01 0.000000e+00
1.625000e+01 -1.150000e+01 0.000000e+00
1.550000e+01 -1.125000e+01 0.000000e+00
1.575000e+01 -1.150000e+01 0.000000e+00
1.500000e+01 -1.125000e+01 0.000000e+00
1.525000e+01 -1.150000e+01 0.000000e+00
2.950000e+01 -1.175000e+01 0.000000e+00
2.975000e+01 -1.200000e+01 0.000000e+00
3.000000e+01 -1.175000e+01 0.000000e+00
2.900000e+01 -1.175000e+01 0.000000e+00
2.925000e+01 -1.200000e+01 0.000000e+00
2.850000e+01 -1.175000e+01 0.000000e+00
2.875000e+01 -1.200000e+01 0.000000e+00
2.800000e+01 -1.175000e+01 0.000000e+00
2.825000e+01 -1.200000e+01 0.000000e+00
2.750000e+01 -1.175000e+01 0.000000e+00
2.775000e+01 -1.200000e+01 0.000000e+00
2.700000e+01 -1.175000e+01 0.000000e+00
2.725000e+01 -1.200000e+01 0.000000e+00
2.650000e+01 -1.175000e+01 0.000000e+00
2.675000e+01 -1.200000e+01 0.000000e+00
2.600000e+01 -1.175000e+01 0.000000e+00
2.625000e+01 -1.200000e+01 0.000000e+00
2.550000e+01 -1.175000e+01 0.000000e+00
2.575000e+01 -1.200000e+01 0.000000e+00
2.500000e+01 -1.175000e+01 0.000000e+00
2.525000e+01 -1.200000e+01 0.000000e+00
2.450000e+01 -1.175000e+01 0.000000e+00
2.475000e+01 -1.200000e+01 0.000000e+00
2.400000e+01 -1.175000e+01 0.000000e+00
2.425000e+01 -1.200000e+01 0.000000e+00
2.350000e+01 -1.175000e+01 0.000000e+00
2.375000e+01 -1.200000e+01 0.000000e+00
2.300000e+01 -1.175000e+01 0.000000e+00
2.325000e+01 -1.200000e+01 0.000000e+00
2.250000e+01 -1.175000e+01 0.000000e+00
2.275000e+01 -1.200000e+01 0.000000e+00
2.200000e+01 -1.175000e+01 0.000000e+00
2.225000e+01 -1.200000e+01 0.000000e+00
2.150000e+01 -1.175000e+01 0.000000e+00
2.175000e+01 -1.200000e+01 0.000000e+00
2.100000e+01 -1.175000e+01 0.000000e+00
2.125000e+01 -1.200000e+01 0.000000e+00
2.050000e+01 -1.175000e+01 0.000000e+00
2.075000e+01 -1.200000e+01 0.000000e+00
2.000000e+01 -1.175000e+01 0.000000e+00
2.025000e+01 -1.200000e+01 0.000000e+00
1.950000e+01 -1.175000e+01 0.000000e+00
1.975000e+01 -1.200000e+01 0.000000e+00
1.900000e+01 -1.175000e+01 0.000000e+00
1.925000e+01 -1.200000e+01 0.000000e+00
1.850000e+01 -1.175000e+01 0.000000e+00
1.875000e+01 -1.200000e+01 0.000000e+00
1.800000e+01 -1.175000e+01 0.000000e+00
1.825000e+01 -1.200000e+01 0.000000e+00
1.750000e+01 -1.175000e+01 0.000000e+00
1.775000e+01 -1.200000e+01 0.000000e+00
1.700000e+01 -1.175000e+01 0.000000e+00
1.725000e+01 -1.200000e+01 0.000000e+00
1.650000e+01 -1.175000e+01 0.000000e+00
1.675000e+01 -1.200000e+01 0.000000e+00
1.600000e+01 -1.175000e+01 0.000000e+00
1.625000e+01 -1.200000e+01 0.000000e+00
1.550000e+01 -1.175000e+01 0.000000e+00
1.575000e+01 -1.200000e+01 0.000000e+00
1.500000e+01 -1.175000e+01 0.000000e+00
1.525000e+01 -1.200000e+01 0.000000e+00
2.950000e+01 -1.225000e+01 0.000000e+00
2.975000e+01 -1.250000e+01 0.000000e+00
3.000000e+01 -1.225000e+01 0.000000e+00
2.900000e+01 -1.225000e+01 0.000000e+00
2.925000e+01 -1.250000e+01 0.000000e+00
2.850000e+01 -1.225000e+01 0.000000e+00
2.875000e+01 -1.250000e+01 0.000000e+00
2.800000e+01 -1.225000e+01 0.000000e+00
2.825000e+01 -1.250000e+01 0.000000e+00
2.750000e+01 -1.225000e+01 0.000000e+00
2.775000e+01 -1.250000e+01 0.000000e+00
2.700000e+01 -1.225000e+01 0.000000e+00
2.725000e+01 -1.250000e+01 0.000000e+00
2.650000e+01 -1.225000e+01 0.000000e+00
2.675000e+01 -1.250000e+01 0.000000e+00
2.600000e+01 -1.225000e+01 0.000000e+00
2.625000e+01 -1.250000e+01 0.000000e+00
2.550000e+01 -1.225000e+01 0.000000e+00
2.575000e+01 -1.250000e+01 0.000000e+00
2.500000e+01 -1.225000e+01 0.000000e+00
2.525000e+01 -1.250000e+01 0.000000e+00
2.450000e+01 -1.225000e+01 0.000000e+00
2.475000e+01 -1.250000e+01 0.000000e+00
2.400000e+01 -1.225000e+01 0.000000e+00
2.425000e+01 -1.250000e+01 0.000000e+00
2.350000e+01 -1.225000e+01 0.000000e+00
2.375000e+01 -1.250000e+01 0.000000e+00
2.300000e+01 -1.225000e+01 0.000000e+00
2.325000e+01 -1.250000e+01 0.000000e+00
2.250000e+01 -1.225000e+01 0.000000e+00
2.275000e+01 -1.250000e+01 0.000000e+00
2.200000e+01 -1.225000e+01 0.000000e+00
2.225000e+01 -1.250000e+01 0.000000e+00
2.150000e+01 -1.225000e+01 0.000000e+00
2.175000e+01 -1.250000e+01 0.000000e+00
2.100000e+01 -1.225000e+01 0.000000e+00
2.125000e+01 -1.250000e+01 0.000000e+00
2.050000e+01 -1.225000e+01 0.000000e+00
2.075000e+01 -1.250000e+01 0.000000e+00
2.000000e+01 -1.225000e+01 0.000000e+00
2.025000e+01 -1.250000e+01 0.000000e+00
1.950000e+01 -1.225000e+01 0.000000e+00
1.975000e+01 -1.250000e+01 0.000000e+00
1.900000e+01 -1.225000e+01 0.000000e+00
1.925000e+01 -1.250000e+01 0.000000e+00
1.850000e+01 -1.225000e+01 0.000000e+00
1.875000e+01 -1.250000e+01 0.000000e+00
1.800000e+01 -1.225000e+01 0.000000e+00
1.825000e+01 -1.250000e+01 0.000000e+00
1.750000e+01 -1.225000e+01 0.000000e+00
1.775000e+01 -1.250000e+01 0.000000e+00
1.700000e+01 -1.225000e+01 0.000000e+00
1.725000e+01 -1.250000e+01 0.000000e+00
1.650000e+01 -1.225000e+01 0.000000e+00
1.675000e+01 -1.250000e+01 0.000000e+00
1.600000e+01 -1.225000e+01 0.000000e+00
1.625000e+01 -1.250000e+01 0.000000e+00
1.550000e+01 -1.225000e+01 0.000000e+00
1.575000e+01 -1.250000e+01 0.000000e+00
1.500000e+01 -1.225000e+01 0.000000e+00
1.525000e+01 -1.250000e+01 0.000000e+00
2.950000e+01 -1.275000e+01 0.000000e+00
2.975000e+01 -1.300000e+01 0.000000e+00
3.000000e+01 -1.275000e+01 0.000000e+00
2.900000e+01 -1.275000e+01 0.000000e+00
2.925000e+01 -1.300000e+01 0.000000e+00
2.850000e+01 -1.275000e+01 0.000000e+00
2.875000e+01 -1.300000e+01 0.000000e+00
2.800000e+01 -1.275000e+01 0.000000e+00
2.825000e+01 -1.300000e+01 0.000000e+00
2.750000e+01 -1.275000e+01 0.000000e+00
2.775000e+01 -1.300000e+01 0.000000e+00
2.700000e+01 -1.275000e+01 0.000000e+00
2.725000e+01 -1.300000e+01 0.000000e+00
2.650000e+01 -1.275000e+01 0.000000e+00
2.675000e+01 -1.300000e+01 0.000000e+00
2.600000e+01 -1.275000e+01 0.000000e+00
2.625000e+01 -1.300000e+01 0.000000e+00
2.550000e+01 -1.275000e+01 0.000000e+00
2.575000e+01 -1.300000e+01 0.000000e+00
2.500000e+01 -1.275000e+01 0.000000e+00
2.525000e+01 -1.300000e+01 0.000000e+00
2.450000e+01 -1.275000e+01 0.000000e+00
2.475000e+01 -1.300000e+01 0.000000e+00
2.400000e+01 -1.275000e+01 0.000000e+00
2.425000e+01 -1.300000e+01 0.000000e+00
2.350000e+01 -1.275000e+01 0.000000e+00
2.375000e+01 -1.300000e+01 0.000000e+00
2.300000e+01 -1.275000e+01 0.000000e+00
2.325000e+01 -1.300000e+01 0.000000e+00
2.250000e+01 -1.275000e+01 0.000000e+00
2.275000e+01 -1.300000e+01 0.000000e+00
2.200000e+01 -1.275000e+01 0.000000e+00
2.225000e+01 -1.300000e+01 0.000000e+00
2.150000e+01 -1.275000e+01 0.000000e+00
2.175000e+01 -1.300000e+01 0.000000e+00
2.100000e+01 -1.275000e+01 0.000000e+00
2.125000e+01 -1.300000e+01 0.000000e+00
2.050000e+01 -1.275000e+01 0.000000e+00
2.075000e+01 -1.300000e+01 0.000000e+00
2.000000e+01 -1.275000e+01 0.000000e+00
2.025000e+01 -1.300000e+01 0.000000e+00
1.950000e+01 -1.275000e+01 0.000000e+00
1.975000e+01 -1.300000e+01 0.000000e+00
1.900000e+01 -1.275000e+01 0.000000e+00
1.925000e+01 -1.300000e+01 0.000000e+00
1.850000e+01 -1.275000e+01 0.000000e+00
1.875000e+01 -1.300000e+01 0.000000e+00
1.800000e+01 -1.275000e+01 0.000000e+00
1.825000e+01 -1.300000e+01 0.000000e+00
1.750000e+01 -1.275000e+01 0.000000e+00
1.775000e+01 -1.300000e+01 0.000000e+00
1.700000e+01 -1.275000e+01 0.000000e+00
1.725000e+01 -1.300000e+01 0.000000e+00
1.650000e+01 -1.275000e+01 0.000000e+00
1.675000e+01 -1.300000e+01 0.000000e+00
1.600000e+01 -1.275000e+01 0.000000e+00
1.625000e+01 -1.300000e+01 0.000000e+00
1.550000e+01 -1.275000e+01 0.000000e+00
1.575000e+01 -1.300000e+01 0.000000e+00
1.500000e+01 -1.275000e+01 0.000000e+00
1.525000e+01 -1.300000e+01 0.000000e+00
2.950000e+01 -1.325000e+01 0.000000e+00
2.975000e+01 -1.350000e+01 0.000000e+00
3.000000e+01 -1.325000e+01 0.000000e+00
2.900000e+01 -1.325000e+01 0.000000e+00
2.925000e+01 -1.350000e+01 0.000000e+00
2.850000e+01 -1.325000e+01 0.000000e+00
2.875000e+01 -1.350000e+01 0.000000e+00
2.800000e+01 -1.325000e+01 0.000000e+00
2.825000e+01 -1.350000e+01 0.000000e+00
2.750000e+01 -1.325000e+01 0.000000e+00
2.775000e+01 -1.350000e+01 0.000000e+00
2.700000e+01 -1.325000e+01 0.000000e+00
2.725000e+01 -1.350000e+01 0.000000e+00
2.650000e+01 -1.325000e+01 0.000000e+00
2.675000e+01 -1.350000e+01 0.000000e+00
2.600000e+01 -1.325000e+01 0.000000e+00
2.625000e+01 -1.350000e+01 0.000000e+00
2.550000e+01 -1.325000e+01 0.000000e+00
2.575000e+01 -1.350000e+01 0.000000e+00
2.500000e+01 -1.325000e+01 0.000000e+00
2.525000e+01 -1.350000e+01 0.000000e+00
2.450000e+01 -1.325000e+01 0.000000e+00
2.475000e+01 -1.350000e+01 0.000000e+00
2.400000e+01 -1.325000e+01 0.000000e+00
2.425000e+01 -1.350000e+01 0.000000e+00
2.350000e+01 -1.325000e+01 0.000000e+00
2.375000e+01 -1.350000e+01 0.000000e+00
2.300000e+01 -1.325000e+01 0.000000e+00
2.325000e+01 -1.350000e+01 0.000000e+00
2.250000e+01 -1.325000e+01 0.000000e+00
2.275000e+01 -1.350000e+01 0.000000e+00
2.200000e+01 -1.325000e+01 0.000000e+00
2.225000e+01 -1.350000e+01 0.000000e+00
2.150000e+01 -1.325000e+01 0.000000e+00
2.175000e+01 -1.350000e+01 0.000000e+00
2.100000e+01 -1.325000e+01 0.000000e+00
2.125000e+01 -1.350000e+01 0.000000e+00
2.050000e+01 -1.325000e+01 0.000000e+00
2.075000e+01 -1.350000e+01 0.000000e+00
2.000000e+01 -1.325000e+01 0.000000e+00
2.025000e+01 -1.350000e+01 0.000000e+00
1.950000e+01 -1.325000e+01 0.000000e+00
1.975000e+01 -1.350000e+01 0.000000e+00
1.900000e+01 -1.325000e+01 0.000000e+00
1.925000e+01 -1.350000e+01 0.000000e+00
1.850000e+01 -1.325000e+01 0.000000e+00
1.875000e+01 -1.350000e+01 0.000000e+00
1.800000e+01 -1.325000e+01 0.000000e+00
1.825000e+01 -1.350000e+01 0.000000e+00
1.750000e+01 -1.325000e+01 0.000000e+00
1.775000e+01 -1.350000e+01 0.000000e+00
1.700000e+01 -1.325000e+01 0.000000e+00
1.725000e+01 -1.350000e+01 0.000000e+00
1.650000e+01 -1.325000e+01 0.000000e+00
1.675000e+01 -1.350000e+01 0.000000e+00
1.600000e+01 -1.325000e+01 0.000000e+00
1.625000e+01 -1.350000e+01 0.000000e+00
1.550000e+01 -1.325000e+01 0.000000e+00
1.575000e+01 -1.350000e+01 0.000000e+00
1.500000e+01 -1.325000e+01 0.000000e+00
1.525000e+01 -1.350000e+01 0.000000e+00
2.950000e+01 -1.375000e+01 0.000000e+00
2.975000e+01 -1.400000e+01 0.000000e+00
3.000000e+01 -1.375000e+01 0.000000e+00
2.900000e+01 -1.375000e+01 0.000000e+00
2.925000e+01 -1.400000e+01 0.000000e+00
2.850000e+01 -1.375000e+01 0.000000e+00
2.875000e+01 -1.400000e+01 0.000000e+00
2.800000e+01 -1.375000e+01 0.000000e+00
2.825000e+01 -1.400000e+01 0.000000e+00
2.750000e+01 -1.375000e+01 0.000000e+00
2.775000e+01 -1.400000e+01 0.000000e+00
2.700000e+01 -1.375000e+01 0.000000e+00
2.725000e+01 -1.400000e+01 0.000000e+00
2.650000e+01 -1.375000e+01 0.000000e+00
2.675000e+01 -1.400000e+01 0.000000e+00
2.600000e+01 -1.375000e+01 0.000000e+00
2.625000e+01 -1.400000e+01 0.000000e+00
2.550000e+01 -1.375000e+01 0.000000e+00
2.575000e+01 -1.400000e+01 0.000000e+00
2.500000e+01 -1.375000e+01 0.000000e+00
2.525000e+01 -1.400000e+01 0.000000e+00
2.450000e+01 -1.375000e+01 0.000000e+00
2.475000e+01 -1.400000e+01 0.000000e+00
2.400000e+01 -1.375000e+01 0.000000e+00
2.425000e+01 -1.400000e+01 0.000000e+00
2.350000e+01 -1.375000e+01 0.000000e+00
2.375000e+01 -1.400000e+01 0.000000e+00
2.300000e+01 -1.375000e+01 0.000000e+00
2.325000e+01 -1.400000e+01 0.000000e+00
2.250000e+01 -1.375000e+01 0.000000e+00
2.275000e+01 -1.400000e+01 0.000000e+00
2.200000e+01 -1.375000e+01 0.000000e+00
2.225000e+01 -1.400000e+01 0.000000e+00
2.150000e+01 -1.375000e+01 0.000000e+00
2.175000e+01 -1.400000e+01 0.000000e+00
2.100000e+01 -1.375000e+01 0.000000e+00
2.125000e+01 -1.400000e+01 0.000000e+00
2.050000e+01 -1.375000e+01 0.000000e+00
2.075000e+01 -1.400000e+01 0.000000e+00
2.000000e+01 -1.375000e+01 0.000000e+00
2.025000e+01 -1.400000e+01 0.000000e+00
1.950000e+01 -1.375000e+01 0.000000e+00
1.975000e+01 -1.400000e+01 0.000000e+00
1.900000e+01 -1.375000e+01 0.000000e+00
1.925000e+01 -1.400000e+01 0.000000e+00
1.850000e+01 -1.375000e+01 0.000000e+00
1.875000e+01 -1.400000e+01 0.000000e+00
1.800000e+01 -1.375000e+01 0.000000e+00
1.825000e+01 -1.400000e+01 0.000000e+00
1.750000e+01 -1.375000e+01 0.000000e+00
1.775000e+01 -1.400000e+01 0.000000e+00
1.700000e+01 -1.375000e+01 0.000000e+00
1.725000e+01 -1.400000e+01 0.000000e+00
1.650000e+01 -1.375000e+01 0.000000e+00
1.675000e+01 -1.400000e+01 0.000000e+00
1.600000e+01 -1.375000e+01 0.000000e+00
1.625000e+01 -1.400000e+01 0.000000e+00
1.550000e+01 -1.375000e+01 0.000000e+00
1.575000e+01 -1.400000e+01 0.000000e+00
1.500000e+01 -1.375000e+01 0.000000e+00
1.525000e+01 -1.400000e+01 0.000000e+00
2.950000e+01 -1.425000e+01 0.000000e+00
2.975000e+01 -1.450000e+01 0.000000e+00
3.000000e+01 -1.425000e+01 0.000000e+00
2.900000e+01 -1.425000e+01 0.000000e+00
2.925000e+01 -1.450000e+01 0.000000e+00
2.850000e+01 -1.425000e+01 0.000000e+00
2.875000e+01 -1.450000e+01 0.000000e+00
2.800000e+01 -1.425000e+01 0.000000e+00
2.825000e+01 -1.450000e+01 0.000000e+00
2.750000e+01 -1.425000e+01 0.000000e+00
2.775000e+01 -1.450000e+01 0.000000e+00
2.700000e+01 -1.425000e+01 0.000000e+00
2.725000e+01 -1.450000e+01 0.000000e+00
2.650000e+01 -1.425000e+01 0.000000e+00
2.675000e+01 -1.450000e+01 0.000000e+00
2.600000e+01 -1.425000e+01 0.000000e+00
2.625000e+01 -1.450000e+01 0.000000e+00
2.550000e+01 -1.425000e+01 0.000000e+00
2.575000e+01 -1.450000e+01 0.000000e+00
2.500000e+01 -1.425000e+01 0.000000e+00
2.525000e+01 -1.450000e+01 0.000000e+00
2.450000e+01 -1.425000e+01 0.000000e+00
2.475000e+01 -1.450000e+01 0.000000e+00
2.400000e+01 -1.425000e+01 0.000000e+00
2.425000e+01 -1.450000e+01 0.000000e+00
2.350000e+01 -1.425000e+01 0.000000e+00
2.375000e+01 -1.450000e+01 0.000000e+00
2.300000e+01 -1.425000e+01 0.000000e+00
2.325000e+01 -1.450000e+01 0.000000e+00
2.250000e+01 -1.425000e+01 0.000000e+00
2.275000e+01 -1.450000e+01 0.000000e+00
2.200000e+01 -1.425000e+01 0.000000e+00
2.225000e+01 -1.450000e+01 0.000000e+00
2.150000e+01 -1.425000e+01 0.000000e+00
2.175000e+01 -1.450000e+01 0.000000e+00
2.100000e+01 -1.425000e+01 0.000000e+00
2.125000e+01 -1.450000e+01 0.000000e+00
2.050000e+01 -1.425000e+01 0.000000e+00
2.075000e+01 -1.450000e+01 0.000000e+00
2.000000e+01 -1.425000e+01 0.000000e+00
2.025000e+01 -1.450000e+01 0.000000e+00
1.950000e+01 -1.425000e+01 0.000000e+00
1.975000e+01 -1.450000e+01 0.000000e+00
1.900000e+01 -1.425000e+01 0.000000e+00
1.925000e+01 -1.450000e+01 0.000000e+00
1.850000e+01 -1.425000e+01 0.000000e+00
1.875000e+01 -1.450000e+01 0.000000e+00
1.800000e+01 -1.425000e+01 0.000000e+00
1.825000e+01 -1.450000e+01 0.000000e+00
1.750000e+01 -1.425000e+01 0.000000e+00
1.775000e+01 -1.450000e+01 0.000000e+00
1.700000e+01 -1.425000e+01 0.000000e+00
1.725000e+01 -1.450000e+01 0.000000e+00
1.650000e+01 -1.425000e+01 0.000000e+00
1.675000e+01 -1.450000e+01 0.000000e+00
1.600000e+01 -1.425000e+01 0.000000e+00
1.625000e+01 -1.450000e+01 0.000000e+00
1.550000e+01 -1.425000e+01 0.000000e+00
1.575000e+01 -1.450000e+01 0.000000e+00
1.500000e+01 -1.425000e+01 0.000000e+00
1.525000e+01 -1.450000e+01 0.000000e+00
2.950000e+01 -1.475000e+01 0.000000e+00
2.975000e+01 -1.500000e+01 0.000000e+00
3.000000e+01 -1.475000e+01 0.000000e+00
2.900000e+01 -1.475000e+01 0.000000e+00
2.925000e+01 -1.500000e+01 0.000000e+00
2.850000e+01 -1.475000e+01 0.000000e+00
2.875000e+01 -1.500000e+01 0.000000e+00
2.800000e+01 -1.475000e+01 0.000000e+00
2.825000e+01 -1.500000e+01 0.000000e+00
2.750000e+01 -1.475000e+01 0.000000e+00
2.775000e+01 -1.500000e+01 0.000000e+00
2.700000e+01 -1.475000e+01 0.000000e+00
2.725000e+01 -1.500000e+01 0.000000e+00
2.650000e+01 -1.475000e+01 0.000000e+00
2.675000e+01 -1.500000e+01 0.000000e+00
2.600000e+01 -1.475000e+01 0.000000e+00
2.625000e+01 -1.500000e+01 0.000000e+00
2.550000e+01 -1.475000e+01 0.000000e+00
2.575000e+01 -1.500000e+01 0.000000e+00
2.500000e+01 -1.475000e+01 0.000000e+00
2.525000e+01 -1.500000e+01 0.000000e+00
2.450000e+01 -1.475000e+01 0.000000e+00
2.475000e+01 -1.500000e+01 0.000000e+00
2.400000e+01 -1.475000e+01 0.000000e+00
2.425000e+01 -1.500000e+01 0.000000e+00
2.350000e+01 -1.475000e+01 0.000000e+00
2.375000e+01 -1.500000e+01 0.000000e+00
2.300000e+01 -1.475000e+01 0.000000e+00
2.325000e+01 -1.500000e+01 0.000000e+00
2.250000e+01 -1.475000e+01 0.000000e+00
2.275000e+01 -1.500000e+01 0.000000e+00
2.200000e+01 -1.475000e+01 0.000000e+00
2.225000e+01 -1.500000e+01 0.000000e+00
2.150000e+01 -1.475000e+01 0.000000e+00
2.175000e+01 -1.500000e+01 0.000000e+00
2.100000e+01 -1.475000e+01 0.000000e+00
2.125000e+01 -1.500000e+01 0.000000e+00
2.050000e+01 -1.475000e+01 0.000000e+00
2.075000e+01 -1.500000e+01 0.000000e+00
2.000000e+01 -1.475000e+01 0.000000e+00
2.025000e+01 -1.500000e+01 0.000000e+00
1.950000e+01 -1.475000e+01 0.000000e+00
1.975000e+01 -1.500000e+01 0.000000e+00
1.900000e+01 -1.475000e+01 0.000000e+00
1.925000e+01 -1.500000e+01 0.000000e+00
1.850000e+01 -1.475000e+01 0.000000e+00
1.875000e+01 -1.500000e+01 0.000000e+00
1.800000e+01 -1.475000e+01 0.000000e+00
1.825000e+01 -1.500000e+01 0.000000e+00
1.750000e+01 -1.475000e+01 0.000000e+00
1.775000e+01 -1.500000e+01 0.000000e+00
1.700000e+01 -1.475000e+01 0.000000e+00
1.725000e+01 -1.500000e+01 0.000000e+00
1.650000e+01 -1.475000e+01 0.000000e+00
1.675000e+01 -1.500000e+01 0.000000e+00
1.600000e+01 -1.475000e+01 0.000000e+00
1.625000e+01 -1.500000e+01 0.000000e+00
1.550000e+01 -1.475000e+01 0.000000e+00
1.575000e+01 -1.500000e+01 0.000000e+00
1.500000e+01 -1.475000e+01 0.000000e+00
1.525000e+01 -1.500000e+01 0.000000e+00
POLYGONS 1800 16200
8 0 1891 1 1892 32 1893 31 1894
8 1 1895 2 1896 33 1897 32 1892
8 2 1898 3 1899 34 1900 33 1896
8 3 1901 4 1902 35 1903 34 1899
8 4 1904 5 1905 36 1906 35 1902
8 5 1907 6 1908 37 1909 36 1905
8 6 1910 7 1911 38 1912 37 1908
8 7 1913 8 1914 39 1915 38 1911
8 8 1916 9 1917 40 1918 39 1914
8 9 1919 10 1920 41 1921 40 1917
8 10 1922 11 1923 42 1924 41 1920
8 11 1925 12 1926 43 1927 42 1923
8 12 1928 13 1929 44 1930 43 1926
8 13 1931 14 1932 45 1933 44 1929
8 14 1934 15 1935 46 1936 45 1932
8 15 1937 16 1938 47 1939 46 1935
8 16 1940 17 1941 48 1942 47 1938
8 17 1943 18 1944 49 1945 48 1941
8 18 1946 19 1947 50 1948 49 1944
8 19 1949 20 1950 51 1951 50 1947
8 20 1952 21 1953 52 1954 51 1950
8 21 1955 22 1956 53 1957 52 1953
8 22 1958 23 1959 54 1960 53 1956
8 23 1961 24 1962 55 1963 54 1959
8 24 1964 25 1965 56 1966 55 1962
8 25 1967 26 1968 57 1969 56 1965
8 26 1970 27 1971 58 1972 57 1968
8 27 1973 28 1974 59 1975 58 1971
8 28 1976 29 1977 60 1978 59 1974
8 29 1979 30 1980 61 1981 60 1977
8 31 1893 32 1982 63 1983 62 1984
8 32 1897 33 1985 64 1986 63 1982
8 33 1900 34 1987 65 1988 64 1985
8 34 1903 35 1989 66 1990 65 1987
8 35 1906 36 1991 67 1992 66 1989
8 36 1909 37 1993 68 1994 67 1991
8 37 1912 38 1995 69 1996 68 1993
8 38 1915 39 1997 70 1998 69 1995
8 39 1918 40 1999 71 2000 70 1997
8 40 1921 41 2001 72 2002 71 1999
8 41 1924 42 2003 73 2004 72 2001
8 42 1927 43 2005 74 2006 73 2003
8 43 1930 44 2007 75 2008 74 2005
8 44 1933 45 2009 76 2010 75 2007
8 45 1936 46 2011 77 2012 76 2009
8 46 1939 47 2013 78 2014 77 2011
8 47 1942 48 2015 79 2016 78 2013
8 48 1945 49 2017 80 2018 79 2015
8 49 1948 50 2019 81 2020 80 2017
8 50 1951 51 2021 82 2022 81 2019
8 51 1954 52 2023 83 2024 82 2021
8 52 1957 53 2025 84 2026 83 2023
8 53 1960 54 2027 85 2028 84 2025
8 54 1963 55 2029 86 2030 85 2027
8 55 1966 56 2031 87 2032 86 2029
8 56 1969 57 2033 88 2034 87 2031
8 57 1972 58 2035 89 2036 88 2033
8 58 1975 59 2037 90 2038 89 2035
8 59 1978 60 2039 91 2040 90 2037
8 60 1981 61 2041 92 2042 91 2039
8 62 1983 63 2043 94 2044 93 2045
8 63 1986 64 2046 95 2047 94 2043
8 64 1988 65 2048 96 2049 95 2046
8 65 1990 66 2050 97 2051 96 2048
8 66 1992 67 2052 98 2053 97 2050
8 67 1994 68 2054 99 2055 98 2052
8 68 1996 69 2056 100 2057 99 2054
8 69 1998 70 2058 101 2059 100 2056
8 70 2000 71 2060 102 2061 101 2058
8 71 2002 72 2062 103 2063 102 2060
8 72 2004 73 2064 104 2065 103 2062
8 73 2006 74 2066 105 2067 104 2064
8 74 2008 75 2068 106 2069 105 2066
8 75 2010 76 2070 107 2071 106 2068
8 76 2012 77 2072 108 2073 107 2070
8 77 2014 78 2074 109 2075 108 2072
8 78 2016 79 2076 110 2077 109 2074
8 79 2018 80 2078 111 2079 110 2076
8 80 2020 81 2080 112 2081 111 2078
8 81 2022 82 2082 113 2083 112 2080
8 82 2024 83 2084 114 2085 113 2082
8 83 2026 84 2086 115 2087 114 2084
8 84 2028 85 2088 116 2089 115 2086
8 85 2030 86 2090 117 2091 116 2088
8 86 2032 87 2092 118 2093 117 2090
8 87 2034 88 2094 119 2095 118 2092
8 88 2036 89 2096 120 2097 119 2094
8 89 2038 90 2098 121 2099 120 2096
8 90 2040 91 2100 122 2101 121 2098
8 91 2042 92 2102 123 2103 122 2100
8 93 2044 94 2104 125 2105 124 2106
8 94 2047 95 2107 126 2108 125 2104
8 95 2049 96 2109 127 2110 126 2107
8 96 2051 97 2111 128 2112 127 2109
8 97 2053 98 2113 129 2114 128 2111
8 98 2055 99 2115 130 2116 129 2113
8 99 2057 100 2117 131 2118 130 2115
8 100 2059 101 2119 132 2120 131 2117
8 101 2061 102 2121 133 2122 132 2119
8 102 2063 103 2123 134 2124 133 2121
8 103 2065 104 2125 135 2126 134 2123
8 104 2067 105 2127 136 2128 135 2125
8 105 2069 106 2129 137 2130 136 2127
8 106 2071 107 2131 138 2132 137 2129
8 107 2073 108 2133 139 2134 138 2131
8 108 2075 109 2135 140 2136 139 2133
8 109 2077 110 2137 141 2138 140 2135
8 110 2079 111 2139 142 2140 141 2137
8 111 2081 112 2141 143 2142 142 2139
8 112 2083 113 2143 144 2144 143 2141
8 113 2085 114 2145 145 2146 144 2143
8 114 2087 115 2147 146 2148 145 2145
8 115 2089 116 2149 147 2150 146 2147
8 116 2091 117 2151 148 2152 147 2149
8 117 2093 118 2153 149 2154 148 2151
8 118 2095 119 2155 150 2156 149 2153
8 119 2097 120 2157 151 2158 150 2155
8 120 2099 121 2159 152 2160 151 2157
8 121 2101 122 2161 153 2162 152 2159
8 122 2103 123 2163 154 2164 153 2161
8 124 2105 125 2165 156 2166 155 2167
8 125 2108 126 2168 157 2169 156 2165
8 126 2110 127 2170 158 2171 157 2168
8 127 2112 128 2172 159 2173 158 2170
8 128 2114 129 2174 160 2175 159 2172
8 129 2116 130 2176 161 2177 160 2174
8 130 2118 131 2178 162 2179 161 2176
8 131 2120 132 2180 163 2181 162 2178
8 132 2122 133 2182 164 2183 163 2180
8 133 2124 134 2184 165 2185 164 2182
8 134 2126 135 2186 166 2187 165 2184
8 135 2128 136 2188 167 2189 166 2186
8 136 2130 137 2190 168 2191 167 2188
8 137 2132 138 2192 169 2193 168 2190
8 138 2134 139 2194 170 2195 169 2192
8 139 2136 140 2196 171 2197 170 2194
8 140 2138 141 2198 172 2199 171 2196
8 141 2140 142 2200 173 2201 172 2198
8 142 2142 143 2202 174 2203 173 2200
8 143 2144 144 2204 175 2205 174 2202
8 144 2146 145 2206 176 2207 175 2204
8 145 2148 146 2208 177 2209 176 2206
8 146 2150 147 2210 178 2211 177 2208
8 147 2152 148 2212 179 2213 178 2210
8 148 2154 149 2214 180 2215 179 2212
8 149 2156 150 2216 181 2217 180 2214
8 150 2158 151 2218 182 2219 181 2216
8 151 2160 152 2220 183 2221 182 2218
8 152 2162 153 2222 184 2223 183 2220
8 153 2164 154 2224 185 2225 184 2222
8 155 2166 156 2226 187 2227 186 2228
8 156 2169 157 2229 188 2230 187 2226
8 157 2171 158 2231 189 2232 188 2229
8 158 2173 159 2233 190 2234 189 2231
8 159 2175 160 2235 191 2236 190 2233
8 160 2177 161 2237 192 2238 191 2235
8 161 2179 162 2239 193 2240 192 2237
8 162 2181 163 2241 194 2242 193 2239
8 163 2183 164 2243 195 2244 194 2241
8 164 2185 165 2245 196 2246 195 2243
8 165 2187 166 2247 197 2248 196 2245
8 166 2189 167 2249 198 2250 197 2247
8 167 2191 168 2251 199 2252 198 2249
8 168 2193 169 2253 200 2254 199 2251
8 169 2195 170 2255 201 2256 200 2253
8 170 2197 171 2257 202 2258 201 2255
8 171 2199 172 2259 203 2260 202 2257
8 172 2201 173 2261 204 2262 203 2259
8 173 2203 174 2263 205 2264 204 2261
8 174 2205 175 2265 206 2266 205 2263
8 175 2207 176 2267 207 2268 206 2265
8 176 2209 177 2269 208 2270 207 2267
8 177 2211 178 2271 209 2272 208 2269
8 178 2213 179 2273 210 2274 209 2271
8 179 2215 180 2275 211 2276 210 2273
8 180 2217 181 2277 212 2278 211 2275
8 181 2219 182 2279 213 2280 212 2277
8 182 2221 183 2281 214 2282 213 2279
8 183 2223 184 2283 215 2284 214 2281
8 184 2225 185 2285 216 2286 215 2283
8 186 2227 187 2287 218 2288 217 2289
8 187 2230 188 2290 219 2291 218 2287
8 188 2232 189 2292 220 2293 219 2290
8 189 2234 190 2294 221 2295 220 2292
8 190 2236 191 2296 222 2297 221 2294
8 191 2238 192 2298 223 2299 222 2296
8 192 2240 193 2300 224 2301 223 2298
8 193 2242 194 2302 225 2303 224 2300
8 194 2244 195 2304 226 2305 225 2302
8 195 2246 196 2306 227 2307 226 2304
8 196 2248 197 2308 228 2309 227 2306
8 197 2250 198 2310 229 2311 228 2308
8 198 2252 199 2312 230 2313 229 2310
8 199 2254 200 2314 231 2315 230 2312
8 200 2256 201 2316 232 2317 231 2314
8 201 2258 202 2318 233 2319 232 2316
8 202 2260 203 2320 234 2321 233 2318
8 203 2262 204 2322 235 2323 234 2320
8 204 2264 205 2324 236 2325 235 2322
8 205 2266 206 2326 237 2327 236 2324
8 206 2268 207 2328 238 2329 237 2326
8 207 2270 208 2330 239 2331 238 2328
8 208 2272 209 2332 240 2333 239 2330
8 209 2274 210 2334 241 2335 240 2332
8 210 2276 211 2336 242 2337 241 2334
8 211 2278 212 2338 243 2339 242 2336
8 212 2280 213 2340 244 2341 243 2338
8 213 2282 214 2342 245 2343 244 2340
8 214 2284 215 2344 246 2345 245 2342
8 215 2286 216 2346 247 2347 246 2344
8 217 2288 218 2348 249 2349 248 2350
8 218 2291 219 2351 250 2352 249 2348
8 219 2293 220 2353 251 2354 250 2351
8 220 2295 221 2355 252 2356 251 2353
8 221 2297 222 2357 253 2358 252 2355
8 222 2299 223 2359 254 2360 253 2357
8 223 2301 224 2361 255 2362 254 2359
8 224 2303 225 2363 256 2364 255 2361
8 225 2305 226 2365 257 2366 256 2363
8 226 2307 227 2367 258 2368 257 2365
8 227 2309 228 2369 259 2370 258 2367
8 228 2311 229 2371 260 2372 259 2369
8 229 2313 230 2373 261 2374 260 2371
8 230 2315 231 2375 262 2376 261 2373
8 231 2317 232 2377 263 2378 262 2375
8 232 2319 233 2379 264 2380 263 2377
8 233 2321 234 2381 265 2382 264 2379
8 234 2323 235 2383 266 2384 265 2381
8 235 2325 236 2385 267 2386 266 2383
8 236 2327 237 2387 268 2388 267 2385
8 237 2329 238 2389 269 2390 268 2387
8 238 2331 239 2391 270 2392 269 2389
8 239 2333 240 2393 271 2394 270 2391
8 240 2335 241 2395 272 2396 271 2393
8 241 2337 242 2397 273 2398 272 2395
8 242 2339 243 2399 274 2400 273 2397
8 243 2341 244 2401 275 2402 274 2399
8 244 2343 245 2403 276 2404 275 2401
8 245 2345 246 2405 277 2406 276 2403
8 246 2347 247 2407 278 2408 277 2405
8 248 2349 249 2409 280 2410 279 2411
8 249 2352 250 2412 281 2413 280 2409
8 250 2354 251 2414 282 2415 281 2412
8 251 2356 252 2416 283 2417 282 2414
8 252 2358 253 2418 284 2419 283 2416
8 253 2360 254 2420 285 2421 284 2418
8 254 2362 255 2422 286 2423 285 2420
8 255 2364 256 2424 287 2425 286 2422
8 256 2366 257 2426 288 2427 287 2424
8 257 2368 258 2428 289 2429 288 2426
8 258 2370 259 2430 290 2431 289 2428
8 259 2372 260 2432 291 2433 290 2430
8 260 2374 261 2434 292 2435 291 2432
8 261 2376 262 2436 293 2437 292 2434
8 262 2378 263 2438 294 2439 293 2436
8 263 2380 264 2440 295 2441 294 2438
8 264 2382 265 2442 296 2443 295 2440
8 265 2384 266 2444 297 2445 296 2442
8 266 2386 267 2446 298 2447 297 2444
8 267 2388 268 2448 299 2449 298 2446
8 268 2390 269 2450 300 2451 299 2448
8 269 2392 270 2452 301 2453 300 2450
8 270 2394 271 2454 302 2455 301 2452
8 271 2396 272 2456 303 2457 302 2454
8 272 2398 273 2458 304 2459 303 2456
8 273 2400 274 2460 305 2461 304 2458
8 274 2402 275 2462 306 2463 305 2460
8 275 2404 276 2464 307 2465 306 2462
8 276 2406 277 2466 308 2467 307 2464
8 277 2408 278 2468 309 2469 308 2466
8 279 2410 280 2470 311 2471 310 2472
8 280 2413 281 2473 312 2474 311 2470
8 281 2415 282 2475 313 2476 312 2473
8 282 2417 283 2477 314 2478 313 2475
8 283 2419 284 2479 315 2480 314 2477
8 284 2421 285 2481 316 2482 315 2479
8 285 2423 286 2483 317 2484 316 2481
8 286 2425 287 2485 318 2486 317 2483
8 287 2427 288 2487 319 2488 318 2485
8 288 2429 289 2489 320 2490 319 2487
8 289 2431 290 2491 321 2492 320 2489
8 290 2433 291 2493 322 2494 321 2491
8 291 2435 292 2495 323 2496 322 2493
8 292 2437 293 2497 324 2498 323 2495
8 293 2439 294 2499 325 2500 324 2497
8 294 2441 295 2501 326 2502 325 2499
8 295 2443 296 2503 327 2504 326 2501
8 296 2445 297 2505 328 2506 327 2503
8 297 2447 298 2507 329 2508 328 2505
8 298 2449 299 2509 330 2510 329 2507
8 299 2451 300 2511 331 2512 330 2509
8 300 2453 301 2513 332 2514 331 2511
8 301 2455 302 2515 333 2516 332 2513
8 302 2457 303 2517 334 2518 333 2515
8 303 2459 304 2519 335 2520 334 2517
8 304 2461 305 2521 336 2522 335 2519
8 305 2463 306 2523 337 2524 336 2521
8 306 2465 307 2525 338 2526 337 2523
8 307 2467 308 2527 339 2528 338 2525
8 308 2469 309 2529 340 2530 339 2527
8 310 2471 311 2531 342 2532 341 2533
8 311 2474 312 2534 343 2535 342 2531
8 312 2476 313 2536 344 2537 343 2534
8 313 2478 314 2538 345 2539 344 2536
8 314 2480 315 2540 346 2541 345 2538
8 315 2482 316 2542 347 2543 346 2540
8 316 2484 317 2544 348 2545 347 2542
8 317 2486 318 2546 349 2547 348 2544
8 318 2488 319 2548 350 2549 349 2546
8 319 2490 320 2550 351 2551 350 2548
8 320 2492 321 2552 352 2553 351 2550
8 321 2494 322 2554 353 2555 352 2552
8 322 2496 323 2556 354 2557 353 2554
8 323 2498 324 2558 355 2559 354 2556
8 324 2500 325 2560 356 2561 355 2558
8 325 2502 326 2562 357 2563 356 2560
8 326 2504 327 2564 358 2565 357 2562
8 327 2506 328 2566 359 2567 358 2564
8 328 2508 329 2568 360 2569 359 2566
8 329 2510 330 2570 361 2571 360 2568
8 330 2512 331 2572 362 2573 361 2570
8 331 2514 332 2574 363 2575 362 2572
8 332 2516 333 2576 364 2577 363 2574
8 333 2518 334 2578 365 2579 364 2576
8 334 2520 335 2580 366 2581 365 2578
8 335 2522 336 2582 367 2583 366 2580
8 336 2524 337 2584 368 2585 367 2582
8 337 2526 338 2586 369 2587 368 2584
8 338 2528 339 2588 370 2589 369 2586
8 339 2530 340 2590 371 2591 370 2588
8 341 2532 342 2592 373 2593 372 2594
8 342 2535 343 2595 374 2596 373 2592
8 343 2537 344 2597 375 2598 374 2595
8 344 2539 345 2599 376 2600 375 2597
8 345 2541 346 2601 377 2602 376 2599
8 346 2543 347 2603 378 2604 377 2601
8 347 2545 348 2605 379 2606 378 2603
8 348 2547 349 2607 380 2608 379 2605
8 349 2549 350 2609 381 2610 380 2607
8 350 2551 351 2611 382 2612 381 2609
8 351 2553 352 2613 383 2614 382 2611
8 352 2555 353 2615 384 2616 383 2613
8 353 2557 354 2617 385 2618 384 2615
8 354 2559 355 2619 386 2620 385 2617
8 355 2561 356 2621 387 2622 386 2619
8 356 2563 357 2623 388 2624 387 2621
8 357 2565 358 2625 389 2626 388 2623
8 358 2567 359 2627 390 2628 389 2625
8 359 2569 360 2629 391 2630 390 2627
8 360 2571 361 2631 392 2632 391 2629
8 361 2573 362 2633 393 2634 392 2631
8 362 2575 363 2635 394 2636 393 2633
8 363 2577 364 2637 395 2638 394 2635
8 364 2579 365 2639 396 2640 395 2637
8 365 2581 366 2641 397 2642 396 2639
8 366 2583 367 2643 398 2644 397 2641
8 367 2585 368 2645 399 2646 398 2643
8 368 2587 369 2647 400 2648 399 2645
8 369 2589 370 2649 401 2650 400 2647
8 370 2591 371 2651 402 2652 401 2649
8 372 2593 373 2653 404 2654 403 2655
8 373 2596 374 2656 405 2657 404 2653
8 374 2598 375 2658 406 2659 405 2656
8 375 2600 376 2660 407 2661 406 2658
8 376 2602 377 2662 408 2663 407 2660
8 377 2604 378 2664 409 2665 408 2662
8 378 2606 379 2666 410 2667 409 2664
8 379 2608 380 2668 411 2669 410 2666
8 380 2610 381 2670 412 2671 411 2668
8 381 2612 382 2672 413 2673 412 2670
8 382 2614 383 2674 414 2675 413 2672
8 383 2616 384 2676 415 2677 414 2674
8 384 2618 385 2678 416 2679 415 2676
8 385 2620 386 2680 417 2681 416 2678
8 386 2622 387 2682 418 2683 417 2680
8 387 2624 388 2684 419 2685 418 2682
8 388 2626 389 2686 420 2687 419 2684
8 389 2628 390 2688 421 2689 420 2686
8 390 2630 391 2690 422 2691 421 2688
8 391 2632 392 2692 423 2693 422 2690
8 392 2634 393 2694 424 2695 423 2692
8 393 2636 394 2696 425 2697 424 2694
8 394 2638 395 2698 426 2699 425 2696
8 395 2640 396 2700 427 2701 426 2698
8 396 2642 397 2702 428 2703 427 2700
8 397 2644 398 2704 429 2705 428 2702
8 398 2646 399 2706 430 2707 429 2704
8 399 2648 400 2708 431 2709 430 2706
8 400 2650 401 2710 432 2711 431 2708
8 401 2652 402 2712 433 2713 432 2710
8 403 2654 404 2714 435 2715 434 2716
8 404 2657 405 2717 436 2718 435 2714
8 405 2659 406 2719 437 2720 436 2717
8 406 2661 407 2721 438 2722 437 2719
8 407 2663 408 2723 439 2724 438 2721
8 408 2665 409 2725 440 2726 439 2723
8 409 2667 410 2727 441 2728 440 2725
8 410 2669 411 2729 442 2730 441 2727
8 411 2671 412 2731 443 2732 442 2729
8 412 2673 413 2733 444 2734 443 2731
8 413 2675 414 2735 445 2736 444 2733
8 414 2677 415 2737 446 2738 445 2735
8 415 2679 416 2739 447 2740 446 2737
8 416 2681 417 2741 448 2742 447 2739
8 417 2683 418 2743 449 2744 448 2741
8 418 2685 419 2745 450 2746 449 2743
8 419 2687 420 2747 451 2748 450 2745
8 420 2689 421 2749 452 2750 451 2747
8 421 2691 422 2751 453 2752 452 2749
8 422 2693 423 2753 454 2754 453 2751
8 423 2695 424 2755 455 2756 454 2753
8 424 2697 425 2757 456 2758 455 2755
8 425 2699 426 2759 457 2760 456 2757
8 426 2701 427 2761 458 2762 457 2759
8 427 2703 428 2763 459 2764 458 2761
8 428 2705 429 2765 460 2766 459 2763
8 429 2707 430 2767 461 2768 460 2765
8 430 2709 431 2769 462 2770 461 2767
8 431 2711 432 2771 463 2772 462 2769
8 432 2713 433 2773 464 2774 463 2771
8 434 2715 435 2775 466 2776 465 2777
8 435 2718 436 2778 467 2779 466 2775
8 436 2720 437 2780 468 2781 467 2778
8 437 2722 438 2782 469 2783 468 2780
8 438 2724 439 2784 470 2785 469 2782
8 439 2726 440 2786 471 2787 470 2784
8 440 2728 441 2788 472 2789 471 2786
8 441 2730 442 2790 473 2791 472 2788
8 442 2732 443 2792 474 2793 473 2790
8 443 2734 444 2794 475 2795 474 2792
8 444 2736 445 2796 476 2797 475 2794
8 445 2738 446 2798 477 2799 476 2796
8 446 2740 447 2800 478 2801 477 2798
8 447 2742 448 2802 479 2803 478 2800
8 448 2744 449 2804 480 2805 479 2802
8 449 2746 450 2806 481 2807 480 2804
8 450 2748 451 2808 482 2809 481 2806
8 451 2750 452 2810 483 2811 482 2808
8 452 2752 453 2812 484 2813 483 2810
8 453 2754 454 2814 485 2815 484 2812
8 454 2756 455 2816 486 2817 485 2814
8 455 2758 456 2818 487 2819 486 2816
8 456 2760 457 2820 488 2821 487 2818
8 457 2762 458 2822 489 2823 488 2820
8 458 2764 459 2824 490 2825 489 2822
8 459 2766 460 2826 491 2827 490 2824
8 460 2768 461 2828 492 2829 491 2826
8 461 2770 462 2830 493 2831 492 2828
8 462 2772 463 2832 494 2833 493 2830
8 463 2774 464 2834 495 2835 494 2832
8 465 2776 466 2836 497 2837 496 2838
8 466 2779 467 2839 498 2840 497 2836
8 467 2781 468 2841 499 2842 498 2839
8 468 2783 469 2843 500 2844 499 2841
8 469 2785 470 2845 501 2846 500 2843
8 470 2787 471 2847 502 2848 501 2845
8 471 2789 472 2849 503 2850 502 2847
8 472 2791 473 2851 504 2852 503 2849
8 473 2793 474 2853 505 2854 504 2851
8 474 2795 475 2855 506 2856 505 2853
8 475 2797 476 2857 507 2858 506 2855
8 476 2799 477 2859 508 2860 507 2857
8 477 2801 478 2861 509 2862 508 2859
8 478 2803 479 2863 510 2864 509 2861
8 479 2805 480 2865 511 2866 510 2863
8 480 2807 481 2867 512 2868 511 2865
8 481 2809 482 2869 513 2870 512 2867
8 482 2811 483 2871 514 2872 513 2869
8 483 2813 484 2873 515 2874 514 2871
8 484 2815 485 2875 516 2876 515 2873
8 485 2817 486 2877 517 2878 516 2875
8 486 2819 487 2879 518 2880 517 2877
8 487 2821 488 2881 519 2882 518 2879
8 488 2823 489 2883 520 2884 519 2881
8 489 2825 490 2885 521 2886 520 2883
8 490 2827 491 2887 522 2888 521 2885
8 491 2829 492 2889 523 2890 522 2887
8 492 2831 493 2891 524 2892 523 2889
8 493 2833 494 2893 525 2894 524 2891
8 494 2835 495 2895 526 2896 525 2893
8 496 2837 497 2897 528 2898 527 2899
8 497 2840 498 2900 529 2901 528 2897
8 498 2842 499 2902 530 2903 529 2900
8 499 2844 500 2904 531 2905 530 2902
8 500 2846 501 2906 532 2907 531 2904
8 501 2848 502 2908 533 2909 532 2906
8 502 2850 503 2910 534 2911 533 2908
8 503 2852 504 2912 535 2913 534 2910
8 504 2854 505 2914 536 2915 535 2912
8 505 2856 506 2916 537 2917 536 2914
8 506 2858 507 2918 538 2919 537 2916
8 507 2860 508 2920 539 2921 538 2918
8 508 2862 509 2922 540 2923 539 2920
8 509 2864 510 2924 541 2925 540 2922
8 510 2866 511 2926 542 2927 541 2924
8 511 2868 512 2928 543 2929 542 2926
8 512 2870 513 2930 544 2931 543 2928
8 513 2872 514 2932 545 2933 544 2930
8 514 2874 515 2934 546 2935 545 2932
8 515 2876 516 2936 547 2937 546 2934
8 516 2878 517 2938 548 2939 547 2936
8 517 2880 518 2940 549 2941 548 2938
8 518 2882 519 2942 550 2943 549 2940
8 519 2884 520 2944 551 2945 550 2942
8 520 2886 521 2946 552 2947 551 2944
8 521 2888 522 2948 553 2949 552 2946
8 522 2890 523 2950 554 2951 553 2948
8 523 2892 524 2952 555 2953 554 2950
8 524 2894 525 2954 556 2955 555 2952
8 525 2896 526 2956 557 2957 556 2954
8 527 2898 528 2958 559 2959 558 2960
8 528 2901 529 2961 560 2962 559 2958
8 529 2903 530 2963 561 2964 560 2961
8 530 2905 531 2965 562 2966 561 2963
8 531 2907 532 2967 563 2968 562 2965
8 532 2909 533 2969 564 2970 563 2967
8 533 2911 534 2971 565 2972 564 2969
8 534 2913 535 2973 566 2974 565 2971
8 535 2915 536 2975 567 2976 566 2973
8 536 2917 537 2977 568 2978 567 2975
8 537 2919 538 2979 569 2980 568 2977
8 538 2921 539 2981 570 2982 569 2979
8 539 2923 540 2983 571 2984 570 2981
8 540 2925 541 2985 572 2986 571 2983
8 541 2927 542 2987 573 2988 572 2985
8 542 2929 543 2989 574 2990 573 2987
8 543 2931 544 2991 575 2992 574 2989
8 544 2933 545 2993 576 2994 575 2991
8 545 2935 546 2995 577 2996 576 2993
8 546 2937 547 2997 578 2998 577 2995
8 547 2939 548 2999 579 3000 578 2997
8 548 2941 549 3001 580 3002 579 2999
8 549 2943 550 3003 581 3004 580 3001
8 550 2945 551 3005 582 3006 581 3003
8 551 2947 552 3007 583 3008 582 3005
8 552 2949 553 3009 584 3010 583 3007
8 553 2951 554 3011 585 3012 584 3009
8 554 2953 555 3013 586 3014 585 3011
8 555 2955 556 3015 587 3016 586 3013
8 556 2957 557 3017 588 3018 587 3015
8 558 2959 559 3019 590 3020 589 3021
8 559 2962 560 3022 591 3023 590 3019
8 560 2964 561 3024 592 3025 591 3022
8 561 2966 562 3026 593 3027 592 3024
8 562 2968 563 3028 594 3029 593 3026
8 563 2970 564 3030 595 3031 594 3028
8 564 2972 565 3032 596 3033 595 3030
8 565 2974 566 3034 597 3035 596 3032
8 566 2976 567 3036 598 3037 597 3034
8 567 2978 568 3038 599 3039 598 3036
8 568 2980 569 3040 600 3041 599 3038
8 569 2982 570 3042 601 3043 600 3040
8 570 2984 571 3044 602 3045 601 3042
8 571 2986 572 3046 603 3047 602 3044
8 572 2988 573 3048 604 3049 603 3046
8 573 2990 574 3050 605 3051 604 3048
8 574 2992 575 3052 606 3053 605 3050
8 575 2994 576 3054 607 3055 606 3052
8 576 2996 577 3056 608 3057 607 3054
8 577 2998 578 3058 609 3059 608 3056
8 578 3000 579 3060 610 3061 609 3058
8 579 3002 580 3062 611 3063 610 3060
8 580 3004 581 3064 612 3065 611 3062
8 581 3006 582 3066 613 3067 612 3064
8 582 3008 583 3068 614 3069 613 3066
8 583 3010 584 3070 615 3071 614 3068
8 584 3012 585 3072 616 3073 615 3070
8 585 3014 586 3074 617 3075 616 3072
8 586 3016 587 3076 618 3077 617 3074
8 587 3018 588 3078 619 3079 618 3076
8 589 3020 590 3080 621 3081 620 3082
8 590 3023 591 3083 622 3084 621 3080
8 591 3025 592 3085 623 3086 622 3083
8 592 3027 593 3087 624 3088 623 3085
8 593 3029 594 3089 625 3090 624 3087
8 594 3031 595 3091 626 3092 625 3089
8 595 3033 596 3093 627 3094 626 3091
8 596 3035 597 3095 628 3096 627 3093
8 597 3037 598 3097 629 3098 628 3095
8 598 3039 599 3099 630 3100 629 3097
8 599 3041 600 3101 631 3102 630 3099
8 600 3043 601 3103 632 3104 631 3101
8 601 3045 602 3105 633 3106 632 3103
8 602 3047 603 3107 634 3108 633 3105
8 603 3049 604 3109 635 3110 634 3107
8 604 3051 605 3111 636 3112 635 3109
8 605 3053 606 3113 637 3114 636 3111
8 606 3055 607 3115 638 3116 637 3113
8 607 3057 608 3117 639 3118 638 3115
8 608 3059 609 3119 640 3120 639 3117
8 609 3061 610 3121 641 3122 640 3119
8 610 3063 611 3123 642 3124 641 3121
8 611 3065 612 3125 643 3126 642 3123
8 612 3067 613 3127 644 3128 643 3125
8 613 3069 614 3129 645 3130 644 3127
8 614 3071 615 3131 646 3132 645 3129
8 615 3073 616 3133 647 3134 646 3131
8 616 3075 617 3135 648 3136 647 3133
8 617 3077 618 3137 649 3138 648 3135
8 618 3079 619 3139 650 3140 649 3137
8 620 3081 621 3141 652 3142 651 3143
8 621 3084 622 3144 653 3145 652 3141
8 622 3086 623 3146 654 3147 653 3144
8 623 3088 624 3148 655 3149 654 3146
8 624 3090 625 3150 656 3151 655 3148
8 625 3092 626 3152 657 3153 656 3150
8 626 3094 627 3154 658 3155 657 3152
8 627 3096 628 3156 659 3157 658 3154
8 628 3098 629 3158 660 3159 659 3156
8 629 3100 630 3160 661 3161 660 3158
8 630 3102 631 3162 662 3163 661 3160
8 631 3104 632 3164 663 3165 662 3162
8 632 3106 633 3166 664 3167 663 3164
8 633 3108 634 3168 665 3169 664 3166
8 634 3110 635 3170 666 3171 665 3168
8 635 3112 636 3172 667 3173 666 3170
8 636 3114 637 3174 668 3175 667 3172
8 637 3116 638 3176 669 3177 668 3174
8 638 3118 639 3178 670 3179 669 3176
8 639 3120 640 3180 671 3181 670 3178
8 640 3122 641 3182 672 3183 671 3180
8 641 3124 642 3184 673 3185 672 3182
8 642 3126 643 3186 674 3187 673 3184
8 643 3128 644 3188 675 3189 674 3186
8 644 3130 645 3190 676 3191 675 3188
8 645 3132 646 3192 677 3193 676 3190
8 646 3134 647 3194 678 3195 677 3192
8 647 3136 648 3196 679 3197 678 3194
8 648 3138 649 3198 680 3199 679 3196
8 649 3140 650 3200 681 3201 680 3198
8 651 3142 652 3202 683 3203 682 3204
8 652 3145 653 3205 684 3206 683 3202
8 653 3147 654 3207 685 3208 684 3205
8 654 3149 655 3209 686 3210 685 3207
8 655 3151 656 3211 687 3212 686 3209
8 656 3153 657 3213 688 3214 687 3211
8 657 3155 658 3215 689 3216 688 3213
8 658 3157 659 3217 690 3218 689 3215
8 659 3159 660 3219 691 3220 690 3217
8 660 3161 661 3221 692 3222 691 3219
8 661 3163 662 3223 693 3224 692 3221
8 662 3165 663 3225 694 3226 693 3223
8 663 3167 664 3227 695 3228 694 3225
8 664 3169 665 3229 696 3230 695 3227
8 665 3171 666 3231 697 3232 696 3229
8 666 3173 667 3233 698 3234 697 3231
8 667 3175 668 3235 699 3236 698 3233
8 668 3177 669 3237 700 3238 699 3235
8 669 3179 670 3239 701 3240 700 3237
8 670 3181 671 3241 702 3242 701 3239
8 671 3183 672 3243 703 3244 702 3241
8 672 3185 673 3245 704 3246 703 3243
8 673 3187 674 3247 705 3248 704 3245
8 674 3189 675 3249 706 3250 705 3247
8 675 3191 676 3251 707 3252 706 3249
8 676 3193 677 3253 708 3254 707 3251
8 677 3195 678 3255 709 3256 708 3253
8 678 3197 679 3257 710 3258 709 3255
8 679 3199 680 3259 711 3260 710 3257
8 680 3201 681 3261 712 3262 711 3259
8 682 3203 683 3263 714 3264 713 3265
8 683 3206 684 3266 715 3267 714 3263
8 684 3208 685 3268 716 3269 715 3266
8 685 3210 686 3270 717 3271 716 3268
8 686 3212 687 3272 718 3273 717 3270
8 687 3214 688 3274 719 3275 718 3272
8 688 3216 689 3276 720 3277 719 3274
8 689 3218 690 3278 721 3279 720 3276
8 690 3220 691 3280 722 3281 721 3278
8 691 3222 692 3282 723 3283 722 3280
8 692 3224 693 3284 724 3285 723 3282
8 693 3226 694 3286 725 3287 724 3284
8 694 3228 695 3288 726 3289 725 3286
8 695 3230 696 3290 727 3291 726 3288
8 696 3232 697 3292 728 3293 727 3290
8 697 3234 698 3294 729 3295 728 3292
8 698 3236 699 3296 730 3297 729 3294
8 699 3238 700 3298 731 3299 730 3296
8 700 3240 701 3300 732 3301 731 3298
8 701 3242 702 3302 733 3303 732 3300
8 702 3244 703 3304 734 3305 733 3302
8 703 3246 704 3306 735 3307 734 3304
8 704 3248 705 3308 736 3309 735 3306
8 705 3250 706 3310 737 3311 736 3308
8 706 3252 707 3312 738 3313 737 3310
8 707 3254 708 3314 739 3315 738 3312
8 708 3256 709 3316 740 3317 739 3314
8 709 3258 710 3318 741 3319 740 3316
8 710 3260 711 3320 742 3321 741 3318
8 711 3262 712 3322 743 3323 742 3320
8 713 3264 714 3324 745 3325 744 3326
8 714 3267 715 3327 746 3328 745 3324
8 715 3269 716 3329 747 3330 746 3327
8 716 3271 717 3331 748 3332 747 3329
8 717 3273 718 3333 749 3334 748 3331
8 718 3275 719 3335 750 3336 749 3333
8 719 3277 720 3337 751 3338 750 3335
8 720 3279 721 3339 752 3340 751 3337
8 721 3281 722 3341 753 3342 752 3339
8 722 3283 723 3343 754 3344 753 3341
8 723 3285 724 3345 755 3346 754 3343
8 724 3287 725 3347 756 3348 755 3345
8 725 3289 726 3349 757 3350 756 3347
8 726 3291 727 3351 758 3352 757 3349
8 727 3293 728 3353 759 3354 758 3351
8 728 3295 729 3355 760 3356 759 3353
8 729 3297 730 3357 761 3358 760 3355
8 730 3299 731 3359 762 3360 761 3357
8 731 3301 732 3361 763 3362 762 3359
8 732 3303 733 3363 764 3364 763 3361
8 733 3305 734 3365 765 3366 764 3363
8 734 3307 735 3367 766 3368 765 3365
8 735 3309 736 3369 767 3370 766 3367
8 736 3311 737 3371 768 3372 767 3369
8 737 3313 738 3373 769 3374 768 3371
8 738 3315 739 3375 770 3376 769 3373
8 739 3317 740 3377 771 3378 770 3375
8 740 3319 741 3379 772 3380 771 3377
8 741 3321 742 3381 773 3382 772 3379
8 742 3323 743 3383 774 3384 773 3381
8 744 3325 745 3385 776 3386 775 3387
8 745 3328 746 3388 777 3389 776 3385
8 746 3330 747 3390 778 3391 777 3388
8 747 3332 748 3392 779 3393 778 3390
8 748 3334 749 3394 780 3395 779 3392
8 749 3336 750 3396 781 3397 780 3394
8 750 3338 751 3398 782 3399 781 3396
8 751 3340 752 3400 783 3401 782 3398
8 752 3342 753 3402 784 3403 783 3400
8 753 3344 754 3404 785 3405 784 3402
8 754 3346 755 3406 786 3407 785 3404
8 755 3348 756 3408 787 3409 786 3406
8 756 3350 757 3410 788 3411 787 3408
8 757 3352 758 3412 789 3413 788 3410
8 758 3354 759 3414 790 3415 789 3412
8 759 3356 760 3416 791 3417 790 3414
8 760 3358 761 3418 792 3419 791 3416
8 761 3360 762 3420 793 3421 792 3418
8 762 3362 763 3422 794 3423 793 3420
8 763 3364 764 3424 795 3425 794 3422
8 764 3366 765 3426 796 3427 795 3424
8 765 3368 766 3428 797 3429 796 3426
8 766 3370 767 3430 798 3431 797 3428
8 767 3372 768 3432 799 3433 798 3430
8 768 3374 769 3434 800 3435 799 3432
8 769 3376 770 3436 801 3437 800 3434
8 770 3378 771 3438 802 3439 801 3436
8 771 3380 772 3440 803 3441 802 3438
8 772 3382 773 3442 804 3443 803 3440
8 773 3384 774 3444 805 3445 804 3442
8 775 3386 776 3446 807 3447 806 3448
8 776 3389 777 3449 808 3450 807 3446
8 777 3391 778 3451 809 3452 808 3449
8 778 3393 779 3453 810 3454 809 3451
8 779 3395 780 3455 811 3456 810 3453
8 780 3397 781 3457 812 3458 811 3455
8 781 3399 782 3459 813 3460 812 3457
8 782 3401 783 3461 814 3462 813 3459
8 783 3403 784 3463 815 3464 814 3461
8 784 3405 785 3465 816 3466 815 3463
8 785 3407 786 3467 817 3468 816 3465
8 786 3409 787 3469 818 3470 817 3467
8 787 3411 788 3471 819 3472 818 3469
8 788 3413 789 3473 820 3474 819 3471
8 789 3415 790 3475 821 3476 820 3473
8 790 3417 791 3477 822 3478 821 3475
8 791 3419 792 3479 823 3480 822 3477
8 792 3421 793 3481 824 3482 823 3479
8 793 3423 794 3483 825 3484 824 3481
8 794 3425 795 3485 826 3486 825 3483
8 795 3427 796 3487 827 3488 826 3485
8 796 3429 797 3489 828 3490 827 3487
8 797 3431 798 3491 829 3492 828 3489
8 798 3433 799 3493 830 3494 829 3491
8 799 3435 800 3495 831 3496 830 3493
8 800 3437 801 3497 832 3498 831 3495
8 801 3439 802 3499 833 3500 832 3497
8 802 3441 803 3501 834 3502 833 3499
8 803 3443 804 3503 835 3504 834 3501
8 804 3445 805 3505 836 3506 835 3503
8 806 3447 807 3507 838 3508 837 3509
8 807 3450 808 3510 839 3511 838 3507
8 808 3452 809 3512 840 3513 839 3510
8 809 3454 810 3514 841 3515 840 3512
8 810 3456 811 3516 842 3517 841 3514
8 811 3458 812 3518 843 3519 842 3516
8 812 3460 813 3520 844 3521 843 3518
8 813 3462 814 3522 845 3523 844 3520
8 814 3464 815 3524 846 3525 845 3522
8 815 3466 816 3526 847 3527 846 3524
8 816 3468 817 3528 848 3529 847 3526
8 817 3470 818 3530 849 3531 848 3528
8 818 3472 819 3532 850 3533 849 3530
8 819 3474 820 3534 851 3535 850 3532
8 820 3476 821 3536 852 3537 851 3534
8 821 3478 822 3538 853 3539 852 3536
8 822 3480 823 3540 854 3541 853 3538
8 823 3482 824 3542 855 3543 854 3540
8 824 3484 825 3544 856 3545 855 3542
8 825 3486 826 3546 857 3547 856 3544
8 826 3488 827 3548 858 3549 857 3546
8 827 3490 828 3550 859 3551 858 3548
8 828 3492 829 3552 860 3553 859 3550
8 829 3494 830 3554 861 3555 860 3552
8 830 3496 831 3556 862 3557 861 3554
8 831 3498 832 3558 863 3559 862 3556
8 832 3500 833 3560 864 3561 863 3558
8 833 3502 834 3562 865 3563 864 3560
8 834 3504 835 3564 866 3565 865 3562
8 835 3506 836 3566 867 3567 866 3564
8 837 3508 838 3568 869 3569 868 3570
8 838 3511 839 3571 870 3572 869 3568
8 839 3513 840 3573 871 3574 870 3571
8 840 3515 841 3575 872 3576 871 3573
8 841 3517 842 3577 873 3578 872 3575
8 842 3519 843 3579 874 3580 873 3577
8 843 3521 844 3581 875 3582 874 3579
8 844 3523 845 3583 876 3584 875 3581
8 845 3525 846 3585 877 3586 876 3583
8 846 3527 847 3587 878 3588 877 3585
8 847 3529 848 3589 879 3590 878 3587
8 848 3531 849 3591 880 3592 879 3589
8 849 3533 850 3593 881 3594 880 3591
8 850 3535 851 3595 882 3596 881 3593
8 851 3537 852 3597 883 3598 882 3595
8 852 3539 853 3599 884 3600 883 3597
8 853 3541 854 3601 885 3602 884 3599
8 854 3543 855 3603 886 3604 885 3601
8 855 3545 856 3605 887 3606 886 3603
8 856 3547 857 3607 888 3608 887 3605
8 857 3549 858 3609 889 3610 888 3607
8 858 3551 859 3611 890 3612 889 3609
8 859 3553 860 3613 891 3614 890 3611
8 860 3555 861 3615 892 3616 891 3613
8 861 3557 862 3617 893 3618 892 3615
8 862 3559 863 3619 894 3620 893 3617
8 863 3561 864 3621 895 3622 894 3619
8 864 3563 865 3623 896 3624 895 3621
8 865 3565 866 3625 897 3626 896 3623
8 866 3567 867 3627 898 3628 897 3625
8 868 3569 869 3629 900 3630 899 3631
8 869 3572 870 3632 901 3633 900 3629
8 870 3574 871 3634 902 3635 901 3632
8 871 3576 872 3636 903 3637 902 3634
8 872 3578 873 3638 904 3639 903 3636
8 873 3580 874 3640 905 3641 904 3638
8 874 3582 875 3642 906 3643 905 3640
8 875 3584 876 3644 907 3645 906 3642
8 876 3586 877 3646 908 3647 907 3644
8 877 3588 878 3648 909 3649 908 3646
8 878 3590 879 3650 910 3651 909 3648
8 879 3592 880 3652 911 3653 910 3650
8 880 3594 881 3654 912 3655 911 3652
8 881 3596 882 3656 913 3657 912 3654
8 882 3598 883 3658 914 3659 913 3656
8 883 3600 884 3660 915 3661 914 3658
8 884 3602 885 3662 916 3663 915 3660
8 885 3604 886 3664 917 3665 916 3662
8 886 3606 887 3666 918 3667 917 3664
8 887 3608 888 3668 919 3669 918 3666
8 888 3610 889 3670 920 3671 919 3668
8 889 3612 890 3672 921 3673 920 3670
8 890 3614 891 3674 922 3675 921 3672
8 891 3616 892 3676 923 3677 922 3674
8 892 3618 893 3678 924 3679 923 3676
8 893 3620 894 3680 925 3681 924 3678
8 894 3622 895 3682 926 3683 925 3680
8 895 3624 896 3684 927 3685 926 3682
8 896 3626 897 3686 928 3687 927 3684
8 897 3628 898 3688 929 3689 928 3686
8 899 3630 900 3690 931 3691 930 3692
8 900 3633 901 3693 932 3694 931 3690
8 901 3635 902 3695 933 3696 932 3693
8 902 3637 903 3697 934 3698 933 3695
8 903 3639 904 3699 935 3700 934 3697
8 904 3641 905 3701 936 3702 935 3699
8 905 3643 906 3703 937 3704 936 3701
8 906 3645 907 3705 938 3706 937 3703
8 907 3647 908 3707 939 3708 938 3705
8 908 3649 909 3709 940 3710 939 3707
8 909 3651 910 3711 941 3712 940 3709
8 910 3653 911 3713 942 3714 941 3711
8 911 3655 912 3715 943 3716 942 3713
8 912 3657 913 3717 944 3718 943 3715
8 913 3659 914 3719 945 3720 944 3717
8 914 3661 915 3721 946 3722 945 3719
8 915 3663 916 3723 947 3724 946 3721
8 916 3665 917 3725 948 3726 947 3723
8 917 3667 918 3727 949 3728 948 3725
8 918 3669 919 3729 950 3730 949 3727
8 919 3671 920 3731 951 3732 950 3729
8 920 3673 921 3733 952 3734 951 3731
8 921 3675 922 3735 953 3736 952 3733
8 922 3677 923 3737 954 3738 953 3735
8 923 3679 924 3739 955 3740 954 3737
8 924 3681 925 3741 956 3742 955 3739
8 925 3683 926 3743 957 3744 956 3741
8 926 3685 927 3745 958 3746 957 3743
8 927 3687 928 3747 959 3748 958 3745
8 928 3689 929 3749 960 3750 959 3747
8 930 3691 931 3751 962 3752 961 3753
8 931 3694 932 3754 963 3755 962 3751
8 932 3696 933 3756 964 3757 963 3754
8 933 3698 934 3758 965 3759 964 3756
8 934 3700 935 3760 966 3761 965 3758
8 935 3702 936 3762 967 3763 966 3760
8 936 3704 937 3764 968 3765 967 3762
8 937 3706 938 3766 969 3767 968 3764
8 938 3708 939 3768 970 3769 969 3766
8 939 3710 940 3770 971 3771 970 3768
8 940 3712 941 3772 972 3773 971 3770
8 941 3714 942 3774 973 3775 972 3772
8 942 3716 943 3776 974 3777 973 3774
8 943 3718 944 3778 975 3779 974 3776
8 944 3720 945 3780 976 3781 975 3778
8 945 3722 946 3782 977 3783 976 3780
8 946 3724 947 3784 978 3785 977 3782
8 947 3726 948 3786 979 3787 978 3784
8 948 3728 949 3788 980 3789 979 3786
8 949 3730 950 3790 981 3791 980 3788
8 950 3732 951 3792 982 3793 981 3790
8 951 3734 952 3794 983 3795 982 3792
8 952 3736 953 3796 984 3797 983 3794
8 953 3738 954 3798 985 3799 984 3796
8 954 3740 955 3800 986 3801 985 3798
8 955 3742 956 3802 987 3803 986 3800
8 956 3744 957 3804 988 3805 987 3802
8 957 3746 958 3806 989 3807 988 3804
8 958 3748 959 3808 990 3809 989 3806
8 959 3750 960 3810 991 3811 990 3808
8 961 3752 962 3812 993 3813 992 3814
8 962 3755 963 3815 994 3816 993 3812
8 963 3757 964 3817 995 3818 994 3815
8 964 3759 965 3819 996 3820 995 3817
8 965 3761 966 3821 997 3822 996 3819
8 966 3763 967 3823 998 3824 997 3821
8 967 3765 968 3825 999 3826 998 3823
8 968 3767 969 3827 1000 3828 999 3825
8 969 3769 970 3829 1001 3830 1000 3827
8 970 3771 971 3831 1002 3832 1001 3829
8 971 3773 972 3833 1003 3834 1002 3831
8 972 3775 973 3835 1004 3836 1003 3833
8 973 3777 974 3837 1005 3838 1004 3835
8 974 3779 975 3839 1006 3840 1005 3837
8 975 3781 976 3841 1007 3842 1006 3839
8 976 3783 977 3843 1008 3844 1007 3841
8 977 3785 978 3845 1009 3846 1008 3843
8 978 3787 979 3847 1010 3848 1009 3845
8 979 3789 980 3849 1011 3850 1010 3847
8 980 3791 981 3851 1012 3852 1011 3849
8 981 3793 982 3853 1013 3854 1012 3851
8 982 3795 983 3855 1014 3856 1013 3853
8 983 3797 984 3857 1015 3858 1014 3855
8 984 3799 985 3859 1016 3860 1015 3857
8 985 3801 986 3861 1017 3862 1016 3859
8 986 3803 987 3863 1018 3864 1017 3861
8 987 3805 988 3865 1019 3866 1018 3863
8 988 3807 989 3867 1020 3868 1019 3865
8 989 3809 990 3869 1021 3870 1020 3867
8 990 3811 991 3871 1022 3872 1021 3869
8 992 3813 993 3873 1024 3874 1023 3875
8 993 3816 994 3876 1025 3877 1024 3873
8 994 3818 995 3878 1026 3879 1025 3876
8 995 3820 996 3880 1027 3881 1026 3878
8 996 3822 997 3882 1028 3883 1027 3880
8 997 3824 998 3884 1029 3885 1028 3882
8 998 3826 999 3886 1030 3887 1029 3884
8 999 3828 1000 3888 1031 3889 1030 3886
8 1000 3830 1001 3890 1032 3891 1031 3888
8 1001 3832 1002 3892 1033 3893 1032 3890
8 1002 3834 1003 3894 1034 3895 1033 3892
8 1003 3836 1004 3896 1035 3897 1034 3894
8 1004 3838 1005 3898 1036 3899 1035 3896
8 1005 3840 1006 3900 1037 3901 1036 3898
8 1006 3842 1007 3902 1038 3903 1037 3900
8 1007 3844 1008 3904 1039 3905 1038 3902
8 1008 3846 1009 3906 1040 3907 1039 3904
8 1009 3848 1010 3908 1041 3909 1040 3906
8 1010 3850 1011 3910 1042 3911 1041 3908
8 1011 3852 1012 3912 1043 3913 1042 3910
8 1012 3854 1013 3914 1044 3915 1043 3912
8 1013 3856 1014 3916 1045 3917 1044 3914
8 1014 3858 1015 3918 1046 3919 1045 3916
8 1015 3860 1016 3920 1047 3921 1046 3918
8 1016 3862 1017 3922 1048 3923 1047 3920
8 1017 3864 1018 3924 1049 3925 1048 3922
8 1018 3866 1019 3926 1050 3927 1049 3924
8 1019 3868 1020 3928 1051 3929 1050 3926
8 1020 3870 1021 3930 1052 3931 1051 3928
8 1021 3872 1022 3932 1053 3933 1052 3930
8 1023 3874 1024 3934 1055 3935 1054 3936
8 1024 3877 1025 3937 1056 3938 1055 3934
8 1025 3879 1026 3939 1057 3940 1056 3937
8 1026 3881 1027 3941 1058 3942 1057 3939
8 1027 3883 1028 3943 1059 3944 1058 3941
8 1028 3885 1029 3945 1060 3946 1059 3943
8 1029 3887 1030 3947 1061 3948 1060 3945
8 1030 3889 1031 3949 1062 3950 1061 3947
8 1031 3891 1032 3951 1063 3952 1062 3949
8 1032 3893 1033 3953 1064 3954 1063 3951
8 1033 3895 1034 3955 1065 3956 1064 3953
8 1034 3897 1035 3957 1066 3958 1065 3955
8 1035 3899 1036 3959 1067 3960 1066 3957
8 1036 3901 1037 3961 1068 3962 1067 3959
8 1037 3903 1038 3963 1069 3964 1068 3961
8 1038 3905 1039 3965 1070 3966 1069 3963
8 1039 3907 1040 3967 1071 3968 1070 3965
8 1040 3909 1041 3969 1072 3970 1071 3967
8 1041 3911 1042 3971 1073 3972 1072 3969
8 1042 3913 1043 3973 1074 3974 1073 3971
8 1043 3915 1044 3975 1075 3976 1074 3973
8 1044 3917 1045 3977 1076 3978 1075 3975
8 1045 3919 1046 3979 1077 3980 1076 3977
8 1046 3921 1047 3981 1078 3982 1077 3979
8 1047 3923 1048 3983 1079 3984 1078 3981
8 1048 3925 1049 3985 1080 3986 1079 3983
8 1049 3927 1050 3987 1081 3988 1080 3985
8 1050 3929 1051 3989 1082 3990 1081 3987
8 1051 3931 1052 3991 1083 3992 1082 3989
8 1052 3933 1053 3993 1084 3994 1083 3991
8 1054 3935 1055 3995 1086 3996 1085 3997
8 1055 3938 1056 3998 1087 3999 1086 3995
8 1056 3940 1057 4000 1088 4001 1087 3998
8 1057 3942 1058 4002 1089 4003 1088 4000
8 1058 3944 1059 4004 1090 4005 1089 4002
8 1059 3946 1060 4006 1091 4007 1090 4004
8 1060 3948 1061 4008 1092 4009 1091 4006
8 1061 3950 1062 4010 1093 4011 1092 4008
8 1062 3952 1063 4012 1094 4013 1093 4010
8 1063 3954 1064 4014 1095 4015 1094 4012
8 1064 3956 1065 4016 1096 4017 1095 4014
8 1065 3958 1066 4018 1097 4019 1096 4016
8 1066 3960 1067 4020 1098 4021 1097 4018
8 1067 3962 1068 4022 1099 4023 1098 4020
8 1068 3964 1069 4024 1100 4025 1099 4022
8 1069 3966 1070 4026 1101 4027 1100 4024
8 1070 3968 1071 4028 1102 4029 1101 4026
8 1071 3970 1072 4030 1103 4031 1102 4028
8 1072 3972 1073 4032 1104 4033 1103 4030
8 1073 3974 1074 4034 1105 4035 1104 4032
8 1074 3976 1075 4036 1106 4037 1105 4034
8 1075 3978 1076 4038 1107 4039 1106 4036
8 1076 3980 1077 4040 1108 4041 1107 4038
8 1077 3982 1078 4042 1109 4043 1108 4040
8 1078 3984 1079 4044 1110 4045 1109 4042
8 1079 3986 1080 4046 1111 4047 1110 4044
8 1080 3988 1081 4048 1112 4049 1111 4046
8 1081 3990 1082 4050 1113 4051 1112 4048
8 1082 3992 1083 4052 1114 4053 1113 4050
8 1083 3994 1084 4054 1115 4055 1114 4052
8 1085 3996 1086 4056 1117 4057 1116 4058
8 1086 3999 1087 4059 1118 4060 1117 4056
8 1087 4001 1088 4061 1119 4062 1118 4059
8 1088 4003 1089 4063 1120 4064 1119 4061
8 1089 4005 1090 4065 1121 4066 1120 4063
8 1090 4007 1091 4067 1122 4068 1121 4065
8 1091 4009 1092 4069 1123 4070 1122 4067
8 1092 4011 1093 4071 1124 4072 1123 4069
8 1093 4013 1094 4073 1125 4074 1124 4071
8 1094 4015 1095 4075 1126 4076 1125 4073
8 1095 4017 1096 4077 1127 4078 1126 4075
8 1096 4019 1097 4079 1128 4080 1127 4077
8 1097 4021 1098 4081 1129 4082 1128 4079
8 1098 4023 1099 4083 1130 4084 1129 4081
8 1099 4025 1100 4085 1131 4086 1130 4083
8 1100 4027 1101 4087 1132 4088 1131 4085
8 1101 4029 1102 4089 1133 4090 1132 4087
8 1102 4031 1103 4091 1134 4092 1133 4089
8 1103 4033 1104 4093 1135 4094 1134 4091
8 1104 4035 1105 4095 1136 4096 1135 4093
8 1105 4037 1106 4097 1137 4098 1136 4095
8 1106 4039 1107 4099 1138 4100 1137 4097
8 1107 4041 1108 4101 1139 4102 1138 4099
8 1108 4043 1109 4103 1140 4104 1139 4101
8 1109 4045 1110 4105 1141 4106 1140 4103
8 1110 4047 1111 4107 1142 4108 1141 4105
8 1111 4049 1112 4109 1143 4110 1142 4107
8 1112 4051 1113 4111 1144 4112 1143 4109
8 1113 4053 1114 4113 1145 4114 1144 4111
8 1114 4055 1115 4115 1146 4116 1145 4113
8 1116 4057 1117 4117 1148 4118 1147 4119
8 1117 4060 1118 4120 1149 4121 1148 4117
8 1118 4062 1119 4122 1150 4123 1149 4120
8 1119 4064 1120 4124 1151 4125 1150 4122
8 1120 4066 1121 4126 1152 4127 1151 4124
8 1121 4068 1122 4128 1153 4129 1152 4126
8 1122 4070 1123 4130 1154 4131 1153 4128
8 1123 4072 1124 4132 1155 4133 1154 4130
8 1124 4074 1125 4134 1156 4135 1155 4132
8 1125 4076 1126 4136 1157 4137 1156 4134
8 1126 4078 1127 4138 1158 4139 1157 4136
8 1127 4080 1128 4140 1159 4141 1158 4138
8 1128 4082 1129 4142 1160 4143 1159 4140
8 1129 4084 1130 4144 1161 4145 1160 4142
8 1130 4086 1131 4146 1162 4147 1161 4144
8 1131 4088 1132 4148 1163 4149 1162 4146
8 1132 4090 1133 4150 1164 4151 1163 4148
8 1133 4092 1134 4152 1165 4153 1164 4150
8 1134 4094 1135 4154 1166 4155 1165 4152
8 1135 4096 1136 4156 1167 4157 1166 4154
8 1136 4098 1137 4158 1168 4159 1167 4156
8 1137 4100 1138 4160 1169 4161 1168 4158
8 1138 4102 1139 4162 1170 4163 1169 4160
8 1139 4104 1140 4164 1171 4165 1170 4162
8 1140 4106 1141 4166 1172 4167 1171 4164
8 1141 4108 1142 4168 1173 4169 1172 4166
8 1142 4110 1143 4170 1174 4171 1173 4168
8 1143 4112 1144 4172 1175 4173 1174 4170
8 1144 4114 1145 4174 1176 4175 1175 4172
8 1145 4116 1146 4176 1177 4177 1176 4174
8 1147 4118 1148 4178 1179 4179 1178 4180
8 1148 4121 1149 4181 1180 4182 1179 4178
8 1149 4123 1150 4183 1181 4184 1180 4181
8 1150 4125 1151 4185 1182 4186 1181 4183
8 1151 4127 1152 4187 1183 4188 1182 4185
8 1152 4129 1153 4189 1184 4190 1183 4187
8 1153 4131 1154 4191 1185 4192 1184 4189
8 1154 4133 1155 4193 1186 4194 1185 4191
8 1155 4135 1156 4195 1187 4196 1186 4193
8 1156 4137 1157 4197 1188 4198 1187 4195
8 1157 4139 1158 4199 1189 4200 1188 4197
8 1158 4141 1159 4201 1190 4202 1189 4199
8 1159 4143 1160 4203 1191 4204 1190 4201
8 1160 4145 1161 4205 1192 4206 1191 4203
8 1161 4147 1162 4207 1193 4208 1192 4205
8 1162 4149 1163 4209 1194 4210 1193 4207
8 1163 4151 1164 4211 1195 4212 1194 4209
8 1164 4153 1165 4213 1196 4214 1195 4211
8 1165 4155 1166 4215 1197 4216 1196 4213
8 1166 4157 1167 4217 1198 4218 1197 4215
8 1167 4159 1168 4219 1199 4220 1198 4217
8 1168 4161 1169 4221 1200 4222 1199 4219
8 1169 4163 1170 4223 1201 4224 1200 4221
8 1170 4165 1171 4225 1202 4226 1201 4223
8 1171 4167 1172 4227 1203 4228 1202 4225
8 1172 4169 1173 4229 1204 4230 1203 4227
8 1173 4171 1174 4231 1205 4232 1204 4229
8 1174 4173 1175 4233 1206 4234 1205 4231
8 1175 4175 1176 4235 1207 4236 1206 4233
8 1176 4177 1177 4237 1208 4238 1207 4235
8 1178 4179 1179 4239 1210 4240 1209 4241
8 1179 4182 1180 4242 1211 4243 1210 4239
8 1180 4184 1181 4244 1212 4245 1211 4242
8 1181 4186 1182 4246 1213 4247 1212 4244
8 1182 4188 1183 4248 1214 4249 1213 4246
8 1183 4190 1184 4250 1215 4251 1214 4248
8 1184 4192 1185 4252 1216 4253 1215 4250
8 1185 4194 1186 4254 1217 4255 1216 4252
8 1186 4196 1187 4256 1218 4257 1217 4254
8 1187 4198 1188 4258 1219 4259 1218 4256
8 1188 4200 1189 4260 1220 4261 1219 4258
8 1189 4202 1190 4262 1221 4263 1220 4260
8 1190 4204 1191 4264 1222 4265 1221 4262
8 1191 4206 1192 4266 1223 4267 1222 4264
8 1192 4208 1193 4268 1224 4269 1223 4266
8 1193 4210 1194 4270 1225 4271 1224 4268
8 1194 4212 1195 4272 1226 4273 1225 4270
8 1195 4214 1196 4274 1227 4275 1226 4272
8 1196 4216 1197 4276 1228 4277 1227 4274
8 1197 4218 1198 4278 1229 4279 1228 4276
8 1198 4220 1199 4280 1230 4281 1229 4278
8 1199 4222 1200 4282 1231 4283 1230 4280
8 1200 4224 1201 4284 1232 4285 1231 4282
8 1201 4226 1202 4286 1233 4287 1232 4284
8 1202 4228 1203 4288 1234 4289 1233 4286
8 1203 4230 1204 4290 1235 4291 1234 4288
8 1204 4232 1205 4292 1236 4293 1235 4290
8 1205 4234 1206 4294 1237 4295 1236 4292
8 1206 4236 1207 4296 1238 4297 1237 4294
8 1207 4238 1208 4298 1239 4299 1238 4296
8 1209 4240 1210 4300 1241 4301 1240 4302
8 1210 4243 1211 4303 1242 4304 1241 4300
8 1211 4245 1212 4305 1243 4306 1242 4303
8 1212 4247 1213 4307 1244 4308 1243 4305
8 1213 4249 1214 4309 1245 4310 1244 4307
8 1214 4251 1215 4311 1246 4312 1245 4309
8 1215 4253 1216 4313 1247 4314 1246 4311
8 1216 4255 1217 4315 1248 4316 1247 4313
8 1217 4257 1218 4317 1249 4318 1248 4315
8 1218 4259 1219 4319 1250 4320 1249 4317
8 1219 4261 1220 4321 1251 4322 1250 4319
8 1220 4263 1221 4323 1252 4324 1251 4321
8 1221 4265 1222 4325 1253 4326 1252 4323
8 1222 4267 1223 4327 1254 4328 1253 4325
8 1223 4269 1224 4329 1255 4330 1254 4327
8 1224 4271 1225 4331 1256 4332 1255 4329
8 1225 4273 1226 4333 1257 4334 1256 4331
8 1226 4275 1227 4335 1258 4336 1257 4333
8 1227 4277 1228 4337 1259 4338 1258 4335
8 1228 4279 1229 4339 1260 4340 1259 4337
8 1229 4281 1230 4341 1261 4342 1260 4339
8 1230 4283 1231 4343 1262 4344 1261 4341
8 1231 4285 1232 4345 1263 4346 1262 4343
8 1232 4287 1233 4347 1264 4348 1263 4345
8 1233 4289 1234 4349 1265 4350 1264 4347
8 1234 4291 1235 4351 1266 4352 1265 4349
8 1235 4293 1236 4353 1267 4354 1266 4351
8 1236 4295 1237 4355 1268 4356 1267 4353
8 1237 4297 1238 4357 1269 4358 1268 4355
8 1238 4299 1239 4359 1270 4360 1269 4357
8 1240 4301 1241 4361 1272 4362 1271 4363
8 1241 4304 1242 4364 1273 4365 1272 4361
8 1242 4306 1243 4366 1274 4367 1273 4364
8 1243 4308 1244 4368 1275 4369 1274 4366
8 1244 4310 1245 4370 1276 4371 1275 4368
8 1245 4312 1246 4372 1277 4373 1276 4370
8 1246 4314 1247 4374 1278 4375 1277 4372
8 1247 4316 1248 4376 1279 4377 1278 4374
8 1248 4318 1249 4378 1280 4379 1279 4376
8 1249 4320 1250 4380 1281 4381 1280 4378
8 1250 4322 1251 4382 1282 4383 1281 4380
8 1251 4324 1252 4384 1283 4385 1282 4382
8 1252 4326 1253 4386 1284 4387 1283 4384
8 1253 4328 1254 4388 1285 4389 1284 4386
8 1254 4330 1255 4390 1286 4391 1285 4388
8 1255 4332 1256 4392 1287 4393 1286 4390
8 1256 4334 1257 4394 1288 4395 1287 4392
8 1257 4336 1258 4396 1289 4397 1288 4394
8 1258 4338 1259 4398 1290 4399 1289 4396
8 1259 4340 1260 4400 1291 4401 1290 4398
8 1260 4342 1261 4402 1292 4403 1291 4400
8 1261 4344 1262 4404 1293 4405 1292 4402
8 1262 4346 1263 4406 1294 4407 1293 4404
8 1263 4348 1264 4408 1295 4409 1294 4406
8 1264 4350 1265 4410 1296 4411 1295 4408
8 1265 4352 1266 4412 1297 4413 1296 4410
8 1266 4354 1267 4414 1298 4415 1297 4412
8 1267 4356 1268 4416 1299 4417 1298 4414
8 1268 4358 1269 4418 1300 4419 1299 4416
8 1269 4360 1270 4420 1301 4421 1300 4418
8 1271 4362 1272 4422 1303 4423 1302 4424
8 1272 4365 1273 4425 1304 4426 1303 4422
8 1273 4367 1274 4427 1305 4428 1304 4425
8 1274 4369 1275 4429 1306 4430 1305 4427
8 1275 4371 1276 4431 1307 4432 1306 4429
8 1276 4373 1277 4433 1308 4434 1307 4431
8 1277 4375 1278 4435 1309 4436 1308 4433
8 1278 4377 1279 4437 1310 4438 1309 4435
8 1279 4379 1280 4439 1311 4440 1310 4437
8 1280 4381 1281 4441 1312 4442 1311 4439
8 1281 4383 1282 4443 1313 4444 1312 4441
8 1282 4385 1283 4445 1314 4446 1313 4443
8 1283 4387 1284 4447 1315 4448 1314 4445
8 1284 4389 1285 4449 1316 4450 1315 4447
8 1285 4391 1286 4451 1317 4452 1316 4449
8 1286 4393 1287 4453 1318 4454 1317 4451
8 1287 4395 1288 4455 1319 4456 1318 4453
8 1288 4397 1289 4457 1320 4458 1319 4455
8 1289 4399 1290 4459 1321 4460 1320 4457
8 1290 4401 1291 4461 1322 4462 1321 4459
8 1291 4403 1292 4463 1323 4464 1322 4461
8 1292 4405 1293 4465 1324 4466 1323 4463
8 1293 4407 1294 4467 1325 4468 1324 4465
8 1294 4409 1295 4469 1326 4470 1325 4467
8 1295 4411 1296 4471 1327 4472 1326 4469
8 1296 4413 1297 4473 1328 4474 1327 4471
8 1297 4415 1298 4475 1329 4476 1328 4473
8 1298 4417 1299 4477 1330 4478 1329 4475
8 1299 4419 1300 4479 1331 4480 1330 4477
8 1300 4421 1301 4481 1332 4482 1331 4479
8 1302 4423 1303 4483 1334 4484 1333 4485
8 1303 4426 1304 4486 1335 4487 1334 4483
8 1304 4428 1305 4488 1336 4489 1335 4486
8 1305 4430 1306 4490 1337 4491 1336 4488
8 1306 4432 1307 4492 1338 4493 1337 4490
8 1307 4434 1308 4494 1339 4495 1338 4492
8 1308 4436 1309 4496 1340 4497 1339 4494
8 1309 4438 1310 4498 1341 4499 1340 4496
8 1310 4440 1311 4500 1342 4501 1341 4498
8 1311 4442 1312 4502 1343 4503 1342 4500
8 1312 4444 1313 4504 1344 4505 1343 4502
8 1313 4446 1314 4506 1345 4507 1344 4504
8 1314 4448 1315 4508 1346 4509 1345 4506
8 1315 4450 1316 4510 1347 4511 1346 4508
8 1316 4452 1317 4512 1348 4513 1347 4510
8 1317 4454 1318 4514 1349 4515 1348 4512
8 1318 4456 1319 4516 1350 4517 1349 4514
8 1319 4458 1320 4518 1351 4519 1350 4516
8 1320 4460 1321 4520 1352 4521 1351 4518
8 1321 4462 1322 4522 1353 4523 1352 4520
8 1322 4464 1323 4524 1354 4525 1353 4522
8 1323 4466 1324 4526 1355 4527 1354 4524
8 1324 4468 1325 4528 1356 4529 1355 4526
8 1325 4470 1326 4530 1357 4531 1356 4528
8 1326 4472 1327 4532 1358 4533 1357 4530
8 1327 4474 1328 4534 1359 4535 1358 4532
8 1328 4476 1329 4536 1360 4537 1359 4534
8 1329 4478 1330 4538 1361 4539 1360 4536
8 1330 4480 1331 4540 1362 4541 1361 4538
8 1331 4482 1332 4542 1363 4543 1362 4540
8 1333 4484 1334 4544 1365 4545 1364 4546
8 1334 4487 1335 4547 1366 4548 1365 4544
8 1335 4489 1336 4549 1367 4550 1366 4547
8 1336 4491 1337 4551 1368 4552 1367 4549
8 1337 4493 1338 4553 1369 4554 1368 4551
8 1338 4495 1339 4555 1370 4556 1369 4553
8 1339 4497 1340 4557 1371 4558 1370 4555
8 1340 4499 1341 4559 1372 4560 1371 4557
8 1341 4501 1342 4561 1373 4562 1372 4559
8 1342 4503 1343 4563 1374 4564 1373 4561
8 1343 4505 1344 4565 1375 4566 1374 4563
8 1344 4507 1345 4567 1376 4568 1375 4565
8 1345 4509 1346 4569 1377 4570 1376 4567
8 1346 4511 1347 4571 1378 4572 1377 4569
8 1347 4513 1348 4573 1379 4574 1378 4571
8 1348 4515 1349 4575 1380 4576 1379 4573
8 1349 4517 1350 4577 1381 4578 1380 4575
8 1350 4519 1351 4579 1382 4580 1381 4577
8 1351 4521 1352 4581 1383 4582 1382 4579
8 1352 4523 1353 4583 1384 4584 1383 4581
8 1353 4525 1354 4585 1385 4586 1384 4583
8 1354 4527 1355 4587 1386 4588 1385 4585
8 1355 4529 1356 4589 1387 4590 1386 4587
8 1356 4531 1357 4591 1388 4592 1387 4589
8 1357 4533 1358 4593 1389 4594 1388 4591
8 1358 4535 1359 4595 1390 4596 1389 4593
8 1359 4537 1360 4597 1391 4598 1390 4595
8 1360 4539 1361 4599 1392 4600 1391 4597
8 1361 4541 1362 4601 1393 4602 1392 4599
8 1362 4543 1363 4603 1394 4604 1393 4601
8 1364 4545 1365 4605 1396 4606 1395 4607
8 1365 4548 1366 4608 1397 4609 1396 4605
8 1366 4550 1367 4610 1398 4611 1397 4608
8 1367 4552 1368 4612 1399 4613 1398 4610
8 1368 4554 1369 4614 1400 4615 1399 4612
8 1369 4556 1370 4616 1401 4617 1400 4614
8 1370 4558 1371 4618 1402 4619 1401 4616
8 1371 4560 1372 4620 1403 4621 1402 4618
8 1372 4562 1373 4622 1404 4623 1403 4620
8 1373 4564 1374 4624 1405 4625 1404 4622
8 1374 4566 1375 4626 1406 4627 1405 4624
8 1375 4568 1376 4628 1407 4629 1406 4626
8 1376 4570 1377 4630 1408 4631 1407 4628
8 1377 4572 1378 4632 1409 4633 1408 4630
8 1378 4574 1379 4634 1410 4635 1409 4632
8 1379 4576 1380 4636 1411 4637 1410 4634
8 1380 4578 1381 4638 1412 4639 1411 4636
8 1381 4580 1382 4640 1413 4641 1412 4638
8 1382 4582 1383 4642 1414 4643 1413 4640
8 1383 4584 1384 4644 1415 4645 1414 4642
8 1384 4586 1385 4646 1416 4647 1415 4644
8 1385 4588 1386 4648 1417 4649 1416 4646
8 1386 4590 1387 4650 1418 4651 1417 4648
8 1387 4592 1388 4652 1419 4653 1418 4650
8 1388 4594 1389 4654 1420 4655 1419 4652
8 1389 4596 1390 4656 1421 4657 1420 4654
8 1390 4598 1391 4658 1422 4659 1421 4656
8 1391 4600 1392 4660 1423 4661 1422 4658
8 1392 4602 1393 4662 1424 4663 1423 4660
8 1393 4604 1394 4664 1425 4665 1424 4662
8 1395 4606 1396 4666 1427 4667 1426 4668
8 1396 4609 1397 4669 1428 4670 1427 4666
8 1397 4611 1398 4671 1429 4672 1428 4669
8 1398 4613 1399 4673 1430 4674 1429 4671
8 1399 4615 1400 4675 1431 4676 1430 4673
8 1400 4617 1401 4677 1432 4678 1431 4675
8 1401 4619 1402 4679 1433 4680 1432 4677
8 1402 4621 1403 4681 1434 4682 1433 4679
8 1403 4623 1404 4683 1435 4684 1434 4681
8 1404 4625 1405 4685 1436 4686 1435 4683
8 1405 4627 1406 4687 1437 4688 1436 4685
8 1406 4629 1407 4689 1438 4690 1437 4687
8 1407 4631 1408 4691 1439 4692 1438 4689
8 1408 4633 1409 4693 1440 4694 1439 4691
8 1409 4635 1410 4695 1441 4696 1440 4693
8 1410 4637 1411 4697 1442 4698 1441 4695
8 1411 4639 1412 4699 1443 4700 1442 4697
8 1412 4641 1413 4701 1444 4702 1443 4699
8 1413 4643 1414 4703 1445 4704 1444 4701
8 1414 4645 1415 4705 1446 4706 1445 4703
8 1415 4647 1416 4707 1447 4708 1446 4705
8 1416 4649 1417 4709 1448 4710 1447 4707
8 1417 4651 1418 4711 1449 4712 1448 4709
8 1418 4653 1419 4713 1450 4714 1449 4711
8 1419 4655 1420 4715 1451 4716 1450 4713
8 1420 4657 1421 4717 1452 4718 1451 4715
8 1421 4659 1422 4719 1453 4720 1452 4717
8 1422 4661 1423 4721 1454 4722 1453 4719
8 1423 4663 1424 4723 1455 4724 1454 4721
8 1424 4665 1425 4725 1456 4726 1455 4723
8 1426 4667 1427 4727 1458 4728 1457 4729
8 1427 4670 1428 4730 1459 4731 1458 4727
8 1428 4672 1429 4732 1460 4733 1459 4730
8 1429 4674 1430 4734 1461 4735 1460 4732
8 1430 4676 1431 4736 1462 4737 1461 4734
8 1431 4678 1432 4738 1463 4739 1462 4736
8 1432 4680 1433 4740 1464 4741 1463 4738
8 1433 4682 1434 4742 1465 4743 1464 4740
8 1434 4684 1435 4744 1466 4745 1465 4742
8 1435 4686 1436 4746 1467 4747 1466 4744
8 1436 4688 1437 4748 1468 4749 1467 4746
8 1437 4690 1438 4750 1469 4751 1468 4748
8 1438 4692 1439 4752 1470 4753 1469 4750
8 1439 4694 1440 4754 1471 4755 1470 4752
8 1440 4696 1441 4756 1472 4757 1471 4754
8 1441 4698 1442 4758 1473 4759 1472 4756
8 1442 4700 1443 4760 1474 4761 1473 4758
8 1443 4702 1444 4762 1475 4763 1474 4760
8 1444 4704 1445 4764 1476 4765 1475 4762
8 1445 4706 1446 4766 1477 4767 1476 4764
8 1446 4708 1447 4768 1478 4769 1477 4766
8 1447 4710 1448 4770 1479 4771 1478 4768
8 1448 4712 1449 4772 1480 4773 1479 4770
8 1449 4714 1450 4774 1481 4775 1480 4772
8 1450 4716 1451 4776 1482 4777 1481 4774
8 1451 4718 1452 4778 1483 4779 1482 4776
8 1452 4720 1453 4780 1484 4781 1483 4778
8 1453 4722 1454 4782 1485 4783 1484 4780
8 1454 4724 1455 4784 1486 4785 1485 4782
8 1455 4726 1456 4786 1487 4787 1486 4784
8 1457 4728 1458 4788 1489 4789 1488 4790
8 1458 4731 1459 4791 1490 4792 1489 4788
8 1459 4733 1460 4793 1491 4794 1490 4791
8 1460 4735 1461 4795 1492 4796 1491 4793
8 1461 4737 1462 4797 1493 4798 1492 4795
8 1462 4739 1463 4799 1494 4800 1493 4797
8 1463 4741 1464 4801 1495 4802 1494 4799
8 1464 4743 1465 4803 1496 4804 1495 4801
8 1465 4745 1466 4805 1497 4806 1496 4803
8 1466 4747 1467 4807 1498 4808 1497 4805
8 1467 4749 1468 4809 1499 4810 1498 4807
8 1468 4751 1469 4811 1500 4812 1499 4809
8 1469 4753 1470 4813 1501 4814 1500 4811
8 1470 4755 1471 4815 1502 4816 1501 4813
8 1471 4757 1472 4817 1503 4818 1502 4815
8 1472 4759 1473 4819 1504 4820 1503 4817
8 1473 4761 1474 4821 1505 4822 1504 4819
8 1474 4763 1475 4823 1506 4824 1505 4821
8 1475 4765 1476 4825 1507 4826 1506 4823
8 1476 4767 1477 4827 1508 4828 1507 4825
8 1477 4769 1478 4829 1509 4830 1508 4827
8 1478 4771 1479 4831 1510 4832 1509 4829
8 1479 4773 1480 4833 1511 4834 1510 4831
8 1480 4775 1481 4835 1512 4836 1511 4833
8 1481 4777 1482 4837 1513 4838 1512 4835
8 1482 4779 1483 4839 1514 4840 1513 4837
8 1483 4781 1484 4841 1515 4842 1514 4839
8 1484 4783 1485 4843 1516 4844 1515 4841
8 1485 4785 1486 4845 1517 4846 1516 4843
8 1486 4787 1487 4847 1518 4848 1517 4845
8 1488 4789 1489 4849 1520 4850 1519 4851
8 1489 4792 1490 4852 1521 4853 1520 4849
8 1490 4794 1491 4854 1522 4855 1521 4852
8 1491 4796 1492 4856 1523 4857 1522 4854
8 1492 4798 1493 4858 1524 4859 1523 4856
8 1493 4800 1494 4860 1525 4861 1524 4858
8 1494 4802 1495 4862 1526 4863 1525 4860
8 1495 4804 1496 4864 1527 4865 1526 4862
8 1496 4806 1497 4866 1528 4867 1527 4864
8 1497 4808 1498 4868 1529 4869 1528 4866
8 1498 4810 1499 4870 1530 4871 1529 4868
8 1499 4812 1500 4872 1531 4873 1530 4870
8 1500 4814 1501 4874 1532 4875 1531 4872
8 1501 4816 1502 4876 1533 4877 1532 4874
8 1502 4818 1503 4878 1534 4879 1533 4876
8 1503 4820 1504 4880 1535 4881 1534 4878
8 1504 4822 1505 4882 1536 4883 1535 4880
8 1505 4824 1506 4884 1537 4885 1536 4882
8 1506 4826 1507 4886 1538 4887 1537 4884
8 1507 4828 1508 4888 1539 4889 1538 4886
8 1508 4830 1509 4890 1540 4891 1539 4888
8 1509 4832 1510 4892 1541 4893 1540 4890
8 1510 4834 1511 4894 1542 4895 1541 4892
8 1511 4836 1512 4896 1543 4897 1542 4894
8 1512 4838 1513 4898 1544 4899 1543 4896
8 1513 4840 1514 4900 1545 4901 1544 4898
8 1514 4842 1515 4902 1546 4903 1545 4900
8 1515 4844 1516 4904 1547 4905 1546 4902
8 1516 4846 1517 4906 1548 4907 1547 4904
8 1517 4848 1518 4908 1549 4909 1548 4906
8 1519 4850 1520 4910 1551 4911 1550 4912
8 1520 4853 1521 4913 1552 4914 1551 4910
8 1521 4855 1522 4915 1553 4916 1552 4913
8 1522 4857 1523 4917 1554 4918 1553 4915
8 1523 4859 1524 4919 1555 4920 1554 4917
8 1524 4861 1525 4921 1556 4922 1555 4919
8 1525 4863 1526 4923 1557 4924 1556 4921
8 1526 4865 1527 4925 1558 4926 1557 4923
8 1527 4867 1528 4927 1559 4928 1558 4925
8 1528 4869 1529 4929 1560 4930 1559 4927
8 1529 4871 1530 4931 1561 4932 1560 4929
8 1530 4873 1531 4933 1562 4934 1561 4931
8 1531 4875 1532 4935 1563 4936 1562 4933
8 1532 4877 1533 4937 1564 4938 1563 4935
8 1533 4879 1534 4939 1565 4940 1564 4937
8 1534 4881 1535 4941 1566 4942 1565 4939
8 1535 4883 1536 4943 1567 4944 1566 4941
8 1536 4885 1537 4945 1568 4946 1567 4943
8 1537 4887 1538 4947 1569 4948 1568 4945
8 1538 4889 1539 4949 1570 4950 1569 4947
8 1539 4891 1540 4951 1571 4952 1570 4949
8 1540 4893 1541 4953 1572 4954 1571 4951
8 1541 4895 1542 4955 1573 4956 1572 4953
8 1542 4897 1543 4957 1574 4958 1573 4955
8 1543 4899 1544 4959 1575 4960 1574 4957
8 1544 4901 1545 4961 1576 4962 1575 4959
8 1545 4903 1546 4963 1577 4964 1576 4961
8 1546 4905 1547 4965 1578 4966 1577 4963
8 1547 4907 1548 4967 1579 4968 1578 4965
8 1548 4909 1549 4969 1580 4970 1579 4967
8 1550 4911 1551 4971 1582 4972 1581 4973
8 1551 4914 1552 4974 1583 4975 1582 4971
8 1552 4916 1553 4976 1584 4977 1583 4974
8 1553 4918 1554 4978 1585 4979 1584 4976
8 1554 4920 1555 4980 1586 4981 1585 4978
8 1555 4922 1556 4982 1587 4983 1586 4980
8 1556 4924 1557 4984 1588 4985 1587 4982
8 1557 4926 1558 4986 1589 4987 1588 4984
8 1558 4928 1559 4988 1590 4989 1589 4986
8 1559 4930 1560 4990 1591 4991 1590 4988
8 1560 4932 1561 4992 1592 4993 1591 4990
8 1561 4934 1562 4994 1593 4995 1592 4992
8 1562 4936 1563 4996 1594 4997 1593 4994
8 1563 4938 1564 4998 1595 4999 1594 4996
8 1564 4940 1565 5000 1596 5001 1595 4998
8 1565 4942 1566 5002 1597 5003 1596 5000
8 1566 4944 1567 5004 1598 5005 1597 5002
8 1567 4946 1568 5006 1599 5007 1598 5004
8 1568 4948 1569 5008 1600 5009 1599 5006
8 1569 4950 1570 5010 1601 5011 1600 5008
8 1570 4952 1571 5012 1602 5013 1601 5010
8 1571 4954 1572 5014 1603 5015 1602 5012
8 1572 4956 1573 5016 1604 5017 1603 5014
8 1573 4958 1574 5018 1605 5019 1604 5016
8 1574 4960 1575 5020 1606 5021 1605 5018
8 1575 4962 1576 5022 1607 5023 1606 5020
8 1576 4964 1577 5024 1608 5025 1607 5022
8 1577 4966 1578 5026 1609 5027 1608 5024
8 1578 4968 1579 5028 1610 5029 1609 5026
8 1579 4970 1580 5030 1611 5031 1610 5028
8 1581 4972 1582 5032 1613 5033 1612 5034
8 1582 4975 1583 5035 1614 5036 1613 5032
8 1583 4977 1584 5037 1615 5038 1614 5035
8 1584 4979 1585 5039 1616 5040 1615 5037
8 1585 4981 1586 5041 1617 5042 1616 5039
8 1586 4983 1587 5043 1618 5044 1617 5041
8 1587 4985 1588 5045 1619 5046 1618 5043
8 1588 4987 1589 5047 1620 5048 1619 5045
8 1589 4989 1590 5049 1621 5050 1620 5047
8 1590 4991 1591 5051 1622 5052 1621 5049
8 1591 4993 1592 5053 1623 5054 1622 5051
8 1592 4995 1593 5055 1624 5056 1623 5053
8 1593 4997 1594 5057 1625 5058 1624 5055
8 1594 4999 1595 5059 1626 5060 1625 5057
8 1595 5001 1596 5061 1627 5062 1626 5059
8 1596 5003 1597 5063 1628 5064 1627 5061
8 1597 5005 1598 5065 1629 5066 1628 5063
8 1598 5007 1599 5067 1630 5068 1629 5065
8 1599 5009 1600 5069 1631 5070 1630 5067
8 1600 5011 1601 5071 1632 5072 1631 5069
8 1601 5013 1602 5073 1633 5074 1632 5071
8 1602 5015 1603 5075 1634 5076 1633 5073
8 1603 5017 1604 5077 1635 5078 1634 5075
8 1604 5019 1605 5079 1636 5080 1635 5077
8 1605 5021 1606 5081 1637 5082 1636 5079
8 1606 5023 1607 5083 1638 5084 1637 5081
8 1607 5025 1608 5085 1639 5086 1638 5083
8 1608 5027 1609 5087 1640 5088 1639 5085
8 1609 5029 1610 5089 1641 5090 1640 5087
8 1610 5031 1611 5091 1642 5092 1641 5089
8 1612 5033 1613 5093 1644 5094 1643 5095
8 1613 5036 1614 5096 1645 5097 1644 5093
8 1614 5038 1615 5098 1646 5099 1645 5096
8 1615 5040 1616 5100 1647 5101 1646 5098
8 1616 5042 1617 5102 1648 5103 1647 5100
8 1617 5044 1618 5104 1649 5105 1648 5102
8 1618 5046 1619 5106 1650 5107 1649 5104
8 1619 5048 1620 5108 1651 5109 1650 5106
8 1620 5050 1621 5110 1652 5111 1651 5108
8 1621 5052 1622 5112 1653 5113 1652 5110
8 1622 5054 1623 5114 1654 5115 1653 5112
8 1623 5056 1624 5116 1655 5117 1654 5114
8 1624 5058 1625 5118 1656 5119 1655 5116
8 1625 5060 1626 5120 1657 5121 1656 5118
8 1626 5062 1627 5122 1658 5123 1657 5120
8 1627 5064 1628 5124 1659 5125 1658 5122
8 1628 5066 1629 5126 1660 5127 1659 5124
8 1629 5068 1630 5128 1661 5129 1660 5126
8 1630 5070 1631 5130 1662 5131 1661 5128
8 1631 5072 1632 5132 1663 5133 1662 5130
8 1632 5074 1633 5134 1664 5135 1663 5132
8 1633 5076 1634 5136 1665 5137 1664 5134
8 1634 5078 1635 5138 1666 5139 1665 5136
8 1635 5080 1636 5140 1667 5141 1666 5138
8 1636 5082 1637 5142 1668 5143 1667 5140
8 1637 5084 1638 5144 1669 5145 1668 5142
8 1638 5086 1639 5146 1670 5147 1669 5144
8 1639 5088 1640 5148 1671 5149 1670 5146
8 1640 5090 1641 5150 1672 5151 1671 5148
8 1641 5092 1642 5152 1673 5153 1672 5150
8 1643 5094 1644 5154 1675 5155 1674 5156
8 1644 5097 1645 5157 1676 5158 1675 5154
8 1645 5099 1646 5159 1677 5160 1676 5157
8 1646 5101 1647 5161 1678 5162 1677 5159
8 1647 5103 1648 5163 1679 5164 1678 5161
8 1648 5105 1649 5165 1680 5166 1679 5163
8 1649 5107 1650 5167 1681 5168 1680 5165
8 1650 5109 1651 5169 1682 5170 1681 5167
8 1651 5111 1652 5171 1683 5172 1682 5169
8 1652 5113 1653 5173 1684 5174 1683 5171
8 1653 5115 1654 5175 1685 5176 1684 5173
8 1654 5117 1655 5177 1686 5178 1685 5175
8 1655 5119 1656 5179 1687 5180 1686 5177
8 1656 5121 1657 5181 1688 5182 1687 5179
8 1657 5123 1658 5183 1689 5184 1688 5181
8 1658 5125 1659 5185 1690 5186 1689 5183
8 1659 5127 1660 5187 1691 5188 1690 5185
8 1660 5129 1661 5189 1692 5190 1691 5187
8 1661 5131 1662 5191 1693 5192 1692 5189
8 1662 5133 1663 5193 1694 5194 1693 5191
8 1663 5135 1664 5195 1695 5196 1694 5193
8 1664 5137 1665 5197 1696 5198 1695 5195
8 1665 5139 1666 5199 1697 5200 1696 5197
8 1666 5141 1667 5201 1698 5202 1697 5199
8 1667 5143 1668 5203 1699 5204 1698 5201
8 1668 5145 1669 5205 1700 5206 1699 5203
8 1669 5147 1670 5207 1701 5208 1700 5205
8 1670 5149 1671 5209 1702 5210 1701 5207
8 1671 5151 1672 5211 1703 5212 1702 5209
8 1672 5153 1673 5213 1704 5214 1703 5211
8 1674 5155 1675 5215 1706 5216 1705 5217
8 1675 5158 1676 5218 1707 5219 1706 5215
8 1676 5160 1677 5220 1708 5221 1707 5218
8 1677 5162 1678 5222 1709 5223 1708 5220
8 1678 5164 1679 5224 1710 5225 1709 5222
8 1679 5166 1680 5226 1711 5227 1710 5224
8 1680 5168 1681 5228 1712 5229 1711 5226
8 1681 5170 1682 5230 1713 5231 1712 5228
8 1682 5172 1683 5232 1714 5233 1713 5230
8 1683 5174 1684 5234 1715 5235 1714 5232
8 1684 5176 1685 5236 1716 5237 1715 5234
8 1685 5178 1686 5238 1717 5239 1716 5236
8 1686 5180 1687 5240 1718 5241 1717 5238
8 1687 5182 1688 5242 1719 5243 1718 5240
8 1688 5184 1689 5244 1720 5245 1719 5242
8 1689 5186 1690 5246 1721 5247 1720 5244
8 1690 5188 1691 5248 1722 5249 1721 5246
8 1691 5190 1692 5250 1723 5251 1722 5248
8 1692 5192 1693 5252 1724 5253 1723 5250
8 1693 5194 1694 5254 1725 5255 1724 5252
8 1694 5196 1695 5256 1726 5257 1725 5254
8 1695 5198 1696 5258 1727 5259 1726 5256
8 1696 5200 1697 5260 1728 5261 1727 5258
8 1697 5202 1698 5262 1729 5263 1728 5260
8 1698 5204 1699 5264 1730 5265 1729 5262
8 1699 5206 1700 5266 1731 5267 1730 5264
8 1700 5208 1701 5268 1732 5269 1731 5266
8 1701 5210 1702 5270 1733 5271 1732 5268
8 1702 5212 1703 5272 1734 5273 1733 5270
8 1703 5214 1704 5274 1735 5275 1734 5272
8 1705 5216 1706 5276 1737 5277 1736 5278
8 1706 5219 1707 5279 1738 5280 1737 5276
8 1707 5221 1708 5281 1739 5282 1738 5279
8 1708 5223 1709 5283 1740 5284 1739 5281
8 1709 5225 1710 5285 1741 5286 1740 5283
8 1710 5227 1711 5287 1742 5288 1741 5285
8 1711 5229 1712 5289 1743 5290 1742 5287
8 1712 5231 1713 5291 1744 5292 1743 5289
8 1713 5233 1714 5293 1745 5294 1744 5291
8 1714 5235 1715 5295 1746 5296 1745 5293
8 1715 5237 1716 5297 1747 5298 1746 5295
8 1716 5239 1717 5299 1748 5300 1747 5297
8 1717 5241 1718 5301 1749 5302 1748 5299
8 1718 5243 1719 5303 1750 5304 1749 5301
8 1719 5245 1720 5305 1751 5306 1750 5303
8 1720 5247 1721 5307 1752 5308 1751 5305
8 1721 5249 1722 5309 1753 5310 1752 5307
8 1722 5251 1723 5311 1754 5312 1753 5309
8 1723 5253 1724 5313 1755 5314 1754 5311
8 1724 5255 1725 5315 1756 5316 1755 5313
8 1725 5257 1726 5317 1757 5318 1756 5315
8 1726 5259 1727 5319 1758 5320 1757 5317
8 1727 5261 1728 5321 1759 5322 1758 5319
8 1728 5263 1729 5323 1760 5324 1759 5321
8 1729 5265 1730 5325 1761 5326 1760 5323
8 1730 5267 1731 5327 1762 5328 1761 5325
8 1731 5269 1732 5329 1763 5330 1762 5327
8 1732 5271 1733 5331 1764 5332 1763 5329
8 1733 5273 1734 5333 1765 5334 1764 5331
8 1734 5275 1735 5335 1766 5336 1765 5333
8 1736 5277 1737 5337 1768 5338 1767 5339
8 1737 5280 1738 5340 1769 5341 1768 5337
8 1738 5282 1739 5342 1770 5343 1769 5340
8 1739 5284 1740 5344 1771 5345 1770 5342
8 1740 5286 1741 5346 1772 5347 1771 5344
8 1741 5288 1742 5348 1773 5349 1772 5346
8 1742 5290 1743 5350 1774 5351 1773 5348
8 1743 5292 1744 5352 1775 5353 1774 5350
8 1744 5294 1745 5354 1776 5355 1775 5352
8 1745 5296 1746 5356 1777 5357 1776 5354
8 1746 5298 1747 5358 1778 5359 1777 5356
8 1747 5300 1748 5360 1779 5361 1778 5358
8 1748 5302 1749 5362 1780 5363 1779 5360
8 1749 5304 1750 5364 1781 5365 1780 5362
8 1750 5306 1751 5366 1782 5367 1781 5364
8 1751 5308 1752 5368 1783 5369 1782 5366
8 1752 5310 1753 5370 1784 5371 1783 5368
8 1753 5312 1754 5372 1785 5373 1784 5370
8 1754 5314 1755 5374 1786 5375 1785 5372
8 1755 5316 1756 5376 1787 5377 1786 5374
8 1756 5318 1757 5378 1788 5379 1787 5376
8 1757 5320 1758 5380 1789 5381 1788 5378
8 1758 5322 1759 5382 1790 5383 1789 5380
8 1759 5324 1760 5384 1791 5385 1790 5382
8 1760 5326 1761 5386 1792 5387 1791 5384
8 1761 5328 1762 5388 1793 5389 1792 5386
8 1762 5330 1763 5390 1794 5391 1793 5388
8 1763 5332 1764 5392 1795 5393 1794 5390
8 1764 5334 1765 5394 1796 5395 1795 5392
8 1765 5336 1766 5396 1797 5397 1796 5394
8 1767 5338 1768 5398 1799 5399 1798 5400
8 1768 5341 1769 5401 1800 5402 1799 5398
8 1769 5343 1770 5403 1801 5404 1800 5401
8 1770 5345 1771 5405 1802 5406 1801 5403
8 1771 5347 1772 5407 1803 5408 1802 5405
8 1772 5349 1773 5409 1804 5410 1803 5407
8 1773 5351 1774 5411 1805 5412 1804 5409
8 1774 5353 1775 5413 1806 5414 1805 5411
8 1775 5355 1776 5415 1807 5416 1806 5413
8 1776 5357 1777 5417 1808 5418 1807 5415
8 1777 5359 1778 5419 1809 5420 1808 5417
8 1778 5361 1779 5421 1810 5422 1809 5419
8 1779 5363 1780 5423 1811 5424 1810 5421
8 1780 5365 1781 5425 1812 5426 1811 5423
8 1781 5367 1782 5427 1813 5428 1812 5425
8 1782 5369 1783 5429 1814 5430 1813 5427
8 1783 5371 1784 5431 1815 5432 1814 5429
8 1784 5373 1785 5433 1816 5434 1815 5431
8 1785 5375 1786 5435 1817 5436 1816 5433
8 1786 5377 1787 5437 1818 5438 1817 5435
8 1787 5379 1788 5439 1819 5440 1818 5437
8 1788 5381 1789 5441 1820 5442 1819 5439
8 1789 5383 1790 5443 1821 5444 1820 5441
8 1790 5385 1791 5445 1822 5446 1821 5443
8 1791 5387 1792 5447 1823 5448 1822 5445
8 1792 5389 1793 5449 1824 5450 1823 5447
8 1793 5391 1794 5451 1825 5452 1824 5449
8 1794 5393 1795 5453 1826 5454 1825 5451
8 1795 5395 1796 5455 1827 5456 1826 5453
8 1796 5397 1797 5457 1828 5458 1827 5455
8 1798 5399 1799 5459 1830 5460 1829 5461
8 1799 5402 1800 5462 1831 5463 1830 5459
8 1800 5404 1801 5464 1832 5465 1831 5462
8 1801 5406 1802 5466 1833 5467 1832 5464
8 1802 5408 1803 5468 1834 5469 1833 5466
8 1803 5410 1804 5470 1835 5471 1834 5468
8 1804 5412 1805 5472 1836 5473 1835 5470
8 1805 5414 1806 5474 1837 5475 1836 5472
8 1806 5416 1807 5476 1838 5477 1837 5474
8 1807 5418 1808 5478 1839 5479 1838 5476
8 1808 5420 1809 5480 1840 5481 1839 5478
8 1809 5422 1810 5482 1841 5483 1840 5480
8 1810 5424 1811 5484 1842 5485 1841 5482
8 1811 5426 1812 5486 1843 5487 1842 5484
8 1812 5428 1813 5488 1844 5489 1843 5486
8 1813 5430 1814 5490 1845 5491 1844 5488
8 1814 5432 1815 5492 1846 5493 1845 5490
8 1815 5434 1816 5494 1847 5495 1846 5492
8 1816 5436 1817 5496 1848 5497 1847 5494
8 1817 5438 1818 5498 1849 5499 1848 5496
8 1818 5440 1819 5500 1850 5501 1849 5498
8 1819 5442 1820 5502 1851 5503 1850 5500
8 1820 5444 1821 5504 1852 5505 1851 5502
8 1821 5446 1822 5506 1853 5507 1852 5504
8 1822 5448 1823 5508 1854 5509 1853 5506
8 1823 5450 1824 5510 1855 5511 1854 5508
8 1824 5452 1825 5512 1856 5513 1855 5510
8 1825 5454 1826 5514 1857 5515 1856 5512
8 1826 5456 1827 5516 1858 5517 1857 5514
8 1827 5458 1828 5518 1859 5519 1858 5516
8 1829 5460 1830 5520 1861 5521 1860 5522
8 1830 5463 1831 5523 1862 5524 1861 5520
8 1831 5465 1832 5525 1863 5526 1862 5523
8 1832 5467 1833 5527 1864 5528 1863 5525
8 1833 5469 1834 5529 1865 5530 1864 5527
8 1834 5471 1835 5531 1866 5532 1865 5529
8 1835 5473 1836 5533 1867 5534 1866 5531
8 1836 5475 1837 5535 1868 5536 1867 5533
8 1837 5477 1838 5537 1869 5538 1868 5535
8 1838 5479 1839 5539 1870 5540 1869 5537
8 1839 5481 1840 5541 1871 5542 1870 5539
8 1840 5483 1841 5543 1872 5544 1871 5541
8 1841 5485 1842 5545 1873 5546 1872 5543
8 1842 5487 1843 5547 1874 5548 1873 5545
8 1843 5489 1844 5549 1875 5550 1874 5547
8 1844 5491 1845 5551 1876 5552 1875 5549
8 1845 5493 1846 5553 1877 5554 1876 5551
8 1846 5495 1847 5555 1878 5556 1877 5553
8 1847 5497 1848 5557 1879 5558 1878 5555
8 1848 5499 1849 5559 1880 5560 1879 5557
8 1849 5501 1850 5561 1881 5562 1880 5559
8 1850 5503 1851 5563 1882 5564 1881 5561
8 1851 5505 1852 5565 1883 5566 1882 5563
8 1852 5507 1853 5567 1884 5568 1883 5565
8 1853 5509 1854 5569 1885 5570 1884 5567
8 1854 5511 1855 5571 1886 5572 1885 5569
8 1855 5513 1856 5573 1887 5574 1886 5571
8 1856 5515 1857 5575 1888 5576 1887 5573
8 1857 5517 1858 5577 1889 5578 1888 5575
8 1858 5519 1859 5579 1890 5580 1889 5577
POINT_DATA 5581
VECTORS dis double
0.00014346 -3.4e-05 0
0.00013814 -3.3047e-05 0
0.0001328 -3.1987e-05 0
0.00012741 -3.1102e-05 0
0.00012209 -3.0193e-05 0
0.0001166 -2.9354e-05 0
0.00011121 -2.838e-05 0
0.00010586 -2.7519e-05 0
0.00010027 -2.6459e-05 0
9.4955e-05 -2.5574e-05 0
8.9546e-05 -2.439e-05 0
8.3831e-05 -2.3066e-05 0
7.8674e-05 -2.1954e-05 0
7.2824e-05 -1.986e-05 0
6.7196e-05 -1.7792e-05 0
6.0451e-05 -1.5809e-05 0
5.4274e-05 -1.3987e-05 0
4.7411e-05 -1.2134e-05 0
4.0753e-05 -1.0298e-05 0
3.334e-05 -8.5893e-06 0
2.7137e-05 -6.7282e-06 0
1.9197e-05 -4.7439e-06 0
9.7026e-06 -2.5947e-06 0
4.0574e-06 -1.1409e-06 0
1.3044e-06 -3.9033e-07 0
3.5381e-07 -1.2656e-07 0
9.4395e-08 -2.2701e-08 0
7.579e-09 -8.4313e-09 0
8.6861e-09 -2.3702e-09 0
-3.3267e-09 3.3925e-09 0
8.6858e-09 -5.2568e-09 0
0.00014253 -3.2073e-05 0
0.00013718 -3.114e-05 0
0.00013187 -3.014e-05 0
0.00012649 -2.9168e-05 0
0.00012103 -2.8313e-05 0
0.00011572 -2.7505e-05 0
0.00011029 -2.6515e-05 0
0.00010479 -2.5691e-05 0
9.9338e-05 -2.4584e-05 0
9.3858e-05 -2.3783e-05 0
8.8243e-05 -2.2505e-05 0
8.2662e-05 -2.1332e-05 0
7.7026e-05 -2.0021e-05 0
7.0974e-05 -1.805e-05 0
6.5207e-05 -1.5903e-05 0
5.8673e-05 -1.3952e-05 0
5.2458e-05 -1.2011e-05 0
4.5561e-05 -1.0191e-05 0
3.9051e-05 -8.4477e-06 0
3.1564e-05 -6.5802e-06 0
2.5038e-05 -4.6147e-06 0
1.714e-05 -2.6167e-06 0
8.4287e-06 -1.1933e-06 0
3.5137e-06 -4.4912e-07 0
1.1068e-06 -1.2366e-07 0
3.0818e-07 -4.0625e-08 0
8.0226e-08 -4.5905e-09 0
5.1371e-09 1.1717e-09 0
1.0825e-08 -6.2415e-09 0
-6.7551e-09 9.0904e-09 0
1.9443e-09 -1.0008e-08 0
0.00014154 -3.0179e-05 0
0.00013608 -2.9278e-05 0
0.00013088 -2.826e-05 0
0.00012555 -2.7366e-05 0
0.00012006 -2.6502e-05 0
0.00011477 -2.5609e-05 0
0.00010922 -2.4693e-05 0
0.00010379 -2.3816e-05 0
9.828e-05 -2.2805e-05 0
9.2654e-05 -2.189e-05 0
8.7065e-05 -2.0727e-05 0
8.1332e-05 -1.9461e-05 0
7.547e-05 -1.8072e-05 0
6.9407e-05 -1.6202e-05 0
6.3499e-05 -1.4094e-05 0
5.6906e-05 -1.2057e-05 0
5.07e-05 -1.0149e-05 0
4.3957e-05 -8.3835e-06 0
3.7259e-05 -6.4644e-06 0
2.9356e-05 -4.4222e-06 0
2.3182e-05 -2.6292e-06 0
1.6199e-05 -1.3772e-06 0
8.2066e-06 -6.294e-07 0
3.5425e-06 -2.4983e-07 0
1.1364e-06 -7.3137e-08 0
3.3447e-07 -3.0755e-08 0
8.264e-08 -1.7451e-09 0
9.0906e-09 1.7901e-10 0
8.4903e-09 -5.801e-09 0
-2.5191e-09 8.3012e-09 0
9.3961e-09 -1.147e-08 0
0.0001405 -2.8356e-05 0
0.00013508 -2.7404e-05 0
0.00012992 -2.6371e-05 0
0.00012453 -2.5504e-05 0
0.00011902 -2.4599e-05 0
0.00011378 -2.3822e-05 0
0.00010817 -2.2883e-05 0
0.00010273 -2.1956e-05 0
9.7156e-05 -2.1026e-05 0
9.1511e-05 -2.0048e-05 0
8.5852e-05 -1.8875e-05 0
7.9945e-05 -1.7599e-05 0
7.4129e-05 -1.6193e-05 0
6.7951e-05 -1.4303e-05 0
6.1792e-05 -1.2247e-05 0
5.5395e-05 -1.0264e-05 0
4.9155e-05 -8.3884e-06 0
4.2069e-05 -6.3613e-06 0
3.515e-05 -4.3132e-06 0
2.7743e-05 -2.6695e-06 0
2.251e-05 -1.6029e-06 0
1.6192e-05 -9.0733e-07 0
8.4276e-06 -4.4148e-07 0
3.6867e-06 -1.8323e-07 0
1.209e-06 -5.359e-08 0
3.565e-07 -2.2269e-08 0
8.8987e-08 -1.8706e-10 0
1.2935e-08 -3.5087e-09 0
6.5912e-09 3.0627e-09 0
-3.4795e-09 -2.8074e-09 0
-2.492e-09 4.9539e-09 0
0.00013946 -2.652e-05 0
0.0001341 -2.5502e-05 0
0.00012886 -2.4567e-05 0
0.00012355 -2.3648e-05 0
0.00011805 -2.285e-05 0
0.0001127 -2.1982e-05 0
0.00010708 -2.1029e-05 0
0.0001017 -2.0194e-05 0
9.6038e-05 -1.9225e-05 0
9.03e-05 -1.8214e-05 0
8.4705e-05 -1.7047e-05 0
7.8666e-05 -1.5801e-05 0
7.279e-05 -1.425e-05 0
6.6478e-05 -1.2428e-05 0
6.0468e-05 -1.0514e-05 0
5.3936e-05 -8.4618e-06 0
4.7209e-05 -6.3201e-06 0
4.0159e-05 -4.2989e-06 0
3.3844e-05 -2.786e-06 0
2.7305e-05 -1.8232e-06 0
2.2638e-05 -1.2141e-06 0
1.6521e-05 -7.163e-07 0
8.7232e-06 -3.5159e-07 0
3.8279e-06 -1.3649e-07 0
1.2799e-06 -5.0052e-08 0
3.6795e-07 -7.7554e-09 0
1.0097e-07 -6.4687e-09 0
8.5224e-09 -8.9048e-10 0
9.6469e-09 4.7612e-09 0
4.0533e-09 -1.1367e-08 0
-1.6532e-09 1.2889e-08 0
0.00013848 -2.4538e-05 0
0.00013307 -2.3644e-05 0
0.0001279 -2.2732e-05 0
0.00012258 -2.1878e-05 0
0.00011694 -2.1021e-05 0
0.00011165 -2.0127e-05 0
0.00010609 -1.932e-05 0
0.0001006 -1.8385e-05 0
9.4875e-05 -1.7435e-05 0
8.9294e-05 -1.6451e-05 0
8.35e-05 -1.5253e-05 0
7.7346e-05 -1.3918e-05 0
7.1606e-05 -1.2411e-05 0
6.5274e-05 -1.0712e-05 0
5.9046e-05 -8.6004e-06 0
5.207e-05 -6.3532e-06 0
4.5508e-05 -4.3858e-06 0
3.9224e-05 -2.9753e-06 0
3.3619e-05 -2.0907e-06 0
2.7542e-05 -1.5052e-06 0
2.3017e-05 -1.0172e-06 0
1.6914e-05 -5.9551e-07 0
8.9803e-06 -2.7304e-07 0
3.9503e-06 -1.0484e-07 0
1.3327e-06 -3.8538e-08 0
3.7785e-07 -2.7716e-09 0
1.0849e-07 -8.2293e-09 0
9.3665e-09 3.2999e-09 0
4.8841e-09 1.7053e-09 0
1.8172e-09 -4.8249e-09 0
-1.0251e-09 4.0314e-09 0
0.00013738 -2.2805e-05 0
0.00013208 -2.178e-05 0
0.00012688 -2.0867e-05 0
0.00012156 -2.0028e-05 0
0.00011593 -1.9211e-05 0
0.00011065 -1.8413e-05 0
0.00010503 -1.752e-05 0
9.9538e-05 -1.6631e-05 0
9.3915e-05 -1.5759e-05 0
8.8167e-05 -1.4647e-05 0
8.2242e-05 -1.344e-05 0
7.6374e-05 -1.2182e-05 0
7.0532e-05 -1.0706e-05 0
6.3811e-05 -8.7069e-06 0
5.7348e-05 -6.4495e-06 0
5.0656e-05 -4.5581e-06 0
4.4891e-05 -3.2425e-06 0
3.9244e-05 -2.3904e-06 0
3.3934e-05 -1.8056e-06 0
2.7968e-05 -1.3173e-06 0
2.3441e-05 -8.5984e-07 0
1.7277e-05 -4.8004e-07 0
9.1932e-06 -2.0471e-07 0
4.0463e-06 -8.1023e-08 0
1.3692e-06 -2.1905e-08 0
3.9104e-07 -6.6792e-09 0
1.0447e-07 -1.6375e-09 0
1.8449e-08 -8.3215e-10 0
3.5157e-09 -1.8374e-09 0
1.1506e-09 7.2369e-09 0
-6.6278e-10 -6.7619e-09 0
0.00013654 -2.0791e-05 0
0.00013115 -1.9898e-05 0
0.00012589 -1.9085e-05 0
0.00012056 -1.8283e-05 0
0.00011492 -1.7467e-05 0
0.00010965 -1.6622e-05 0
0.00010408 -1.5816e-05 0
9.8598e-05 -1.4992e-05 0
9.2845e-05 -1.398e-05 0
8.7051e-05 -1.2896e-05 0
8.1403e-05 -1.1805e-05 0
7.5393e-05 -1.0489e-05 0
6.9073e-05 -8.6797e-06 0
6.2292e-05 -6.5659e-06 0
5.6285e-05 -4.782e-06 0
5.0321e-05 -3.556e-06 0
4.5116e-05 -2.7292e-06 0
3.966e-05 -2.1078e-06 0
3.4386e-05 -1.6093e-06 0
2.8418e-05 -1.1375e-06 0
2.3858e-05 -7.0743e-07 0
1.758e-05 -3.6494e-07 0
9.3676e-06 -1.519e-07 0
4.1137e-06 -5.5219e-08 0
1.3958e-06 -1.3345e-08 0
4.0122e-07 -8.1955e-09 0
1.0147e-07 4.3666e-09 0
2.0197e-08 -2.1638e-09 0
1.8149e-09 -4.3752e-09 0
7.0068e-09 5.3227e-09 0
-4.074e-09 -7.1914e-09 0
0.00013542 -1.8945e-05 0
0.00013011 -1.8071e-05 0
0.00012491 -1.725e-05 0
0.00011962 -1.6458e-05 0
0.00011403 -1.5698e-05 0
0.00010876 -1.4967e-05 0
0.00010316 -1.418e-05 0
9.7604e-05 -1.3264e-05 0
9.1906e-05 -1.231e-05 0
8.6302e-05 -1.1327e-05 0
8.047e-05 -1.0117e-05 0
7.4019e-05 -8.5066e-06 0
6.7782e-05 -6.6374e-06 0
6.1568e-05 -5.0202e-06 0
5.6219e-05 -3.8792e-06 0
5.0691e-05 -3.0724e-06 0
4.5631e-05 -2.4259e-06 0
4.0157e-05 -1.8813e-06 0
3.4848e-05 -1.4057e-06 0
2.8865e-05 -9.51e-07 0
2.4236e-05 -5.5164e-07 0
1.7827e-05 -2.6448e-07 0
9.4966e-06 -1.0718e-07 0
4.1628e-06 -3.415e-08 0
1.4136e-06 -8.8917e-09 0
4.0402e-07 -5.1211e-09 0
1.0795e-07 -2.7349e-10 0
1.625e-08 2.8501e-09 0
2.2952e-10 -1.2338e-09 0
8.2624e-09 1.5934e-09 0
-1.3199e-08 5.2856e-10 0
0.00013476 -1.6914e-05 0
0.00012934 -1.6159e-05 0
0.00012411 -1.5424e-05 0
0.0001188 -1.4741e-05 0
0.00011317 -1.4065e-05 0
0.0001079 -1.3326e-05 0
0.00010231 -1.2512e-05 0
9.6832e-05 -1.1672e-05 0
9.1221e-05 -1.0766e-05 0
8.5405e-05 -9.6476e-06 0
7.9269e-05 -8.231e-06 0
7.3018e-05 -6.6367e-06 0
6.7383e-05 -5.2234e-06 0
6.1728e-05 -4.1795e-06 0
5.6707e-05 -3.3901e-06 0
5.1269e-05 -2.7285e-06 0
4.6178e-05 -2.1484e-06 0
4.064e-05 -1.6468e-06 0
3.5304e-05 -1.1849e-06 0
2.9286e-05 -7.5536e-07 0
2.4557e-05 -4.0531e-07 0
1.8019e-05 -1.8185e-07 0
9.5811e-06 -6.8634e-08 0
4.202e-06 -2.2885e-08 0
1.4212e-06 -3.9799e-09 0
4.0441e-07 -3.836e-11 0
1.1296e-07 -4.9277e-09 0
1.4707e-08 1.9124e-09 0
3.8064e-09 -1.0658e-09 0
9.475e-09 -1.0737e-09 0
-7.1408e-09 1.4184e-09 0
0.00013385 -1.506e-05 0
0.00012848 -1.4291e-05 0
0.00012327 -1.3678e-05 0
0.00011799 -1.3072e-05 0
0.00011243 -1.2417e-05 0
0.00010721 -1.1717e-05 0
0.00010167 -1.0976e-05 0
9.6198e-05 -1.0141e-05 0
9.041e-05 -9.1289e-06 0
8.4467e-05 -7.9036e-06 0
7.8619e-05 -6.5659e-06 0
7.2921e-05 -5.3593e-06 0
6.7725e-05 -4.4176e-06 0
6.2296e-05 -3.6581e-06 0
5.7326e-05 -2.9897e-06 0
5.1851e-05 -2.3883e-06 0
4.6688e-05 -1.8647e-06 0
4.1103e-05 -1.3946e-06 0
3.5748e-05 -9.4897e-07 0
2.9654e-05 -5.6177e-07 0
2.4815e-05 -2.7989e-07 0
1.8155e-05 -1.1592e-07 0
9.6364e-06 -4.0958e-08 0
4.2277e-06 -1.404e-08 0
1.4249e-06 -3.5733e-09 0
4.0778e-07 2.1287e-09 0
1.0911e-07 -6.2375e-10 0
1.5517e-08 -3.6459e-10 0
4.1617e-09 1.5413e-10 0
3.5776e-09 -1.5688e-09 0
-3.2857e-09 -9.7359e-10 0
0.00013302 -1.2998e-05 0
0.00012767 -1.2451e-05 0
0.00012258 -1.196e-05 0
0.0001174 -1.1436e-05 0
0.0001119 -1.0871e-05 0
0.0001067 -1.0228e-05 0
0.00010114 -9.4753e-06 0
9.5596e-05 -8.589e-06 0
8.983e-05 -7.5473e-06 0
8.4199e-05 -6.4286e-06 0
7.8787e-05 -5.4066e-06 0
7.3397e-05 -4.5667e-06 0
6.8338e-05 -3.8471e-06 0
6.2933e-05 -3.1883e-06 0
5.7926e-05 -2.5819e-06 0
5.2382e-05 -2.0449e-06 0
4.7157e-05 -1.5712e-06 0
4.1554e-05 -1.1219e-06 0
3.6151e-05 -7.1053e-07 0
2.9957e-05 -3.8834e-07 0
2.5003e-05 -1.7783e-07 0
1.8244e-05 -6.9814e-08 0
9.6739e-06 -2.278e-08 0
4.2376e-06 -5.1477e-09 0
1.4296e-06 -5.307e-09 0
4.1237e-07 8.9095e-10 0
1.0536e-07 1.1685e-09 0
1.7899e-08 -1.1751e-09 0
3.5394e-09 3.1909e-09 0
6.8903e-10 5.0873e-10 0
-5.2012e-10 1.0563e-09 0
0.00013279 -1.0656e-05 0
0.00012746 -1.0625e-05 0
0.00012238 -1.0358e-05 0
0.00011718 -9.9602e-06 0
0.00011166 -9.4248e-06 0
0.00010646 -8.7733e-06 0
0.0001009 -8.028e-06 0
9.5435e-05 -7.1583e-06 0
8.9916e-05 -6.2199e-06 0
8.4572e-05 -5.3506e-06 0
7.934e-05 -4.6067e-06 0
7.4022e-05 -3.9364e-06 0
6.897e-05 -3.3025e-06 0
6.3532e-05 -2.7092e-06 0
5.8462e-05 -2.1758e-06 0
5.2856e-05 -1.7038e-06 0
4.7605e-05 -1.2594e-06 0
4.1971e-05 -8.4043e-07 0
3.6489e-05 -4.9177e-07 0
3.0188e-05 -2.4538e-07 0
2.5125e-05 -1.0365e-07 0
1.83e-05 -3.9857e-08 0
9.6961e-06 -1.1143e-08 0
4.2403e-06 -1.5287e-09 0
1.4325e-06 -2.4885e-09 0
4.126e-07 3.2179e-11 0
1.0674e-07 -6.5437e-10 0
1.8447e-08 -1.2764e-09 0
4.6393e-09 -3.5851e-11 0
3.8268e-09 -1.9012e-09 0
-9.0039e-10 1.6125e-09 0
0.00013314 -8.7866e-06 0
0.00012783 -8.9977e-06 0
0.00012265 -8.8586e-06 0
0.00011739 -8.4885e-06 0
0.00011183 -7.9891e-06 0
0.00010662 -7.4067e-06 0
0.00010111 -6.6974e-06 0
9.5769e-05 -5.909e-06 0
9.0396e-05 -5.1698e-06 0
8.5141e-05 -4.5189e-06 0
7.9945e-05 -3.9091e-06 0
7.4629e-05 -3.317e-06 0
6.9549e-05 -2.7546e-06 0
6.4056e-05 -2.2428e-06 0
5.8928e-05 -1.7851e-06 0
5.3296e-05 -1.3518e-06 0
4.8024e-05 -9.3653e-07 0
4.2327e-05 -5.7773e-07 0
3.675e-05 -3.0867e-07 0
3.0342e-05 -1.4075e-07 0
2.5199e-05 -5.656e-08 0
1.8333e-05 -1.8835e-08 0
9.7061e-06 -6.1959e-09 0
4.2443e-06 -1.6706e-09 0
1.4329e-06 1.4742e-09 0
4.1019e-07 -1.1649e-09 0
1.09e-07 5.268e-10 0
1.5536e-08 1.1863e-09 0
3.8299e-09 -1.2821e-09 0
5.1643e-09 -5.995e-10 0
-5.7328e-09 5.7203e-10 0
0.00013354 -7.3246e-06 0
0.00012825 -7.4406e-06 0
0.00012307 -7.3232e-06 0
0.00011778 -7.049e-06 0
0.0001122 -6.6512e-06 0
0.00010699 -6.1006e-06 0
0.00010152 -5.4592e-06 0
9.6243e-05 -4.8498e-06 0
9.0921e-05 -4.2968e-06 0
8.5695e-05 -3.7579e-06 0
8.0506e-05 -3.2226e-06 0
7.5169e-05 -2.709e-06 0
7.0042e-05 -2.2364e-06 0
6.4502e-05 -1.8058e-06 0
5.9353e-05 -1.3919e-06 0
5.3706e-05 -9.8986e-07 0
4.8383e-05 -6.3419e-07 0
4.2602e-05 -3.5721e-07 0
3.6926e-05 -1.7328e-07 0
3.0434e-05 -7.4766e-08 0
2.5241e-05 -2.7303e-08 0
1.8348e-05 -7.081e-09 0
9.7102e-06 -4.301e-09 0
4.2478e-06 -5.9305e-10 0
1.4328e-06 1.2838e-09 0
4.0988e-07 -1.9581e-09 0
1.1039e-07 1.1778e-09 0
1.4765e-08 5.336e-10 0
3.0747e-09 1.1861e-10 0
5.7635e-09 2.1222e-09 0
-5.3882e-09 -1.2331e-09 0
0.00013368 -6.0885e-06 0
0.00012847 -6.116e-06 0
0.00012333 -6.01e-06 0
0.00011807 -5.7589e-06 0
0.00011252 -5.3627e-06 0
0.00010732 -4.8791e-06 0
0.0001019 -4.4006e-06 0
9.668e-05 -3.9426e-06 0
9.1402e-05 -3.4802e-06 0
8.6193e-05 -3.0172e-06 0
8.0988e-05 -2.5707e-06 0
7.5615e-05 -2.1531e-06 0
7.0456e-05 -1.7607e-06 0
6.4904e-05 -1.3735e-06 0
5.9744e-05 -9.9357e-07 0
5.4055e-05 -6.5351e-07 0
4.866e-05 -3.8238e-07 0
4.2789e-05 -1.9525e-07 0
3.703e-05 -8.852e-08 0
3.0485e-05 -3.5306e-08 0
2.5263e-05 -1.1164e-08 0
1.8354e-05 -3.7127e-09 0
9.7129e-06 -1.1155e-09 0
4.2481e-06 3.2514e-11 0
1.4327e-06 -3.8811e-10 0
4.1061e-07 1.7114e-10 0
1.0977e-07 -2.3781e-10 0
1.6673e-08 -1.372e-09 0
3.5332e-09 6.4856e-11 0
5.2113e-09 5.0617e-10 0
-4.1348e-09 -1.9969e-09 0
0.00013372 -4.9909e-06 0
0.00012853 -4.9317e-06 0
0.00012345 -4.7762e-06 0
0.00011824 -4.5296e-06 0
0.0001127 -4.1986e-06 0
0.00010757 -3.8332e-06 0
0.00010223 -3.4618e-06 0
9.7075e-05 -3.0873e-06 0
9.1819e-05 -2.7151e-06 0
8.66e-05 -2.3503e-06 0
8.1375e-05 -1.9967e-06 0
7.5988e-05 -1.6484e-06 0
7.0828e-05 -1.2939e-06 0
6.5269e-05 -9.4469e-07 0
6.0072e-05 -6.3181e-07 0
5.4319e-05 -3.7953e-07 0
4.8844e-05 -2.0133e-07 0
4.2896e-05 -9.5767e-08 0
3.7085e-05 -4.0262e-08 0
3.051e-05 -1.3515e-08 0
2.5271e-05 -5.3447e-09 0
1.8357e-05 -1.8608e-09 0
9.7146e-06 1.0315e-09 0
4.247e-06 -1.1179e-09 0
1.4333e-06 -1.9161e-10 0
4.1091e-07 1.6209e-09 0
1.0775e-07 -9.99e-10 0
1.7415e-08 1.8684e-10 0
3.7017e-09 1.7985e-10 0
3.8628e-09 -6.5878e-10 0
-3.7934e-09 8.0209e-10 0
0.00013368 -3.9519e-06 0
0.00012853 -3.8662e-06 0
0.00012348 -3.7193e-06 0
0.0001183 -3.4844e-06 0
0.00011284 -3.1932e-06 0
0.0001078 -2.9013e-06 0
0.00010253 -2.6235e-06 0
9.7396e-05 -2.3474e-06 0
9.2143e-05 -2.0636e-06 0
8.6923e-05 -1.772e-06 0
8.1703e-05 -1.4688e-06 0
7.6323e-05 -1.1532e-06 0
7.1157e-05 -8.4445e-07 0
6.5565e-05 -5.7004e-07 0
6.0311e-05 -3.4841e-07 0
5.4489e-05 -1.9035e-07 0
4.8946e-05 -9.4172e-08 0
4.2951e-05 -4.1609e-08 0
3.7111e-05 -1.5027e-08 0
3.052e-05 -5.3725e-09 0
2.5274e-05 -2.4083e-09 0
1.8359e-05 1.3157e-10 0
9.7144e-06 9.8104e-11 0
4.247e-06 -7.8195e-10 0
1.434e-06 3.4599e-10 0
4.1098e-07 1.3913e-10 0
1.0759e-07 -4.4035e-10 0
1.7126e-08 1.0647e-09 0
3.772e-09 -2.6156e-10 0
3.8819e-09 -6.3632e-10 0
-3.1379e-09 1.9166e-09 0
0.00013361 -3.0459e-06 0
0.00012848 -2.935e-06 0
0.00012346 -2.7534e-06 0
0.00011835 -2.5245e-06 0
0.00011297 -2.3147e-06 0
0.000108 -2.1292e-06 0
0.00010275 -1.9362e-06 0
9.7643e-05 -1.7214e-06 0
9.2407e-05 -1.4854e-06 0
8.7205e-05 -1.2284e-06 0
8.1995e-05 -9.5936e-07 0
7.6607e-05 -7.0101e-07 0
7.141e-05 -4.7479e-07 0
6.5767e-05 -2.931e-07 0
6.0456e-05 -1.6379e-07 0
5.4578e-05 -8.3984e-08 0
4.8996e-05 -3.8536e-08 0
4.2977e-05 -1.4765e-08 0
3.7121e-05 -5.836e-09 0
3.0523e-05 -2.4607e-09 0
2.5276e-05 1.9859e-10 0
1.8359e-05 -2.2251e-10 0
9.7139e-06 -5.6293e-10 0
4.2479e-06 8.5415e-10 0
1.4333e-06 -3.2079e-10 0
4.1079e-07 -7.1496e-10 0
1.0902e-07 5.9893e-10 0
1.64e-08 -2.4927e-10 0
3.7082e-09 -3.1224e-10 0
4.6879e-09 -5.5189e-11 0
-3.6759e-09 -7.1263e-11 0
0.00013352 -2.1947e-06 0
0.00012841 -2.0688e-06 0
0.00012344 -1.9049e-06 0
0.00011839 -1.7617e-06 0
0.00011308 -1.6377e-06 0
0.00010815 -1.5002e-06 0
0.00010294 -1.3375e-06 0
9.7856e-05 -1.1499e-06 0
9.264e-05 -9.4199e-07 0
8.7445e-05 -7.2909e-07 0
8.2224e-05 -5.31e-07 0
7.6807e-05 -3.6022e-07 0
7.1569e-05 -2.2411e-07 0
6.5881e-05 -1.2791e-07 0
6.0528e-05 -6.7592e-08 0
5.4619e-05 -3.1735e-08 0
4.9018e-05 -1.2538e-08 0
4.2985e-05 -5.2148e-09 0
3.7124e-05 -2.4374e-09 0
3.0525e-05 -7.9533e-11 0
2.5277e-05 6.0259e-11 0
1.8359e-05 -8.2836e-10 0
9.7146e-06 2.7382e-10 0
4.2481e-06 6.473e-10 0
1.4324e-06 -6.5348e-10 0
4.1089e-07 1.0592e-10 0
1.0949e-07 5.7766e-10 0
1.579e-08 -8.4168e-10 0
3.6372e-09 4.6783e-10 0
5.0614e-09 6.2243e-10 0
-4.5583e-09 -1.2017e-09 0
0.00013341 -1.4869e-06 0
0.00012834 -1.3604e-06 0
0.00012342 -1.2408e-06 0
0.00011844 -1.1418e-06 0
0.00011318 -1.0407e-06 0
0.00010829 -9.2335e-07 0
0.0001031 -7.8663e-07 0
9.8033e-05 -6.3795e-07 0
9.2819e-05 -4.9158e-07 0
8.7612e-05 -3.584e-07 0
8.2368e-05 -2.4378e-07 0
7.6921e-05 -1.5315e-07 0
7.165e-05 -8.9808e-08 0
6.5933e-05 -4.9096e-08 0
6.0559e-05 -2.3581e-08 0
5.4636e-05 -9.8258e-09 0
4.9025e-05 -4.5195e-09 0
4.2988e-05 -1.8894e-09 0
3.7126e-05 1.9456e-10 0
3.0525e-05 6.2422e-11 0
2.5276e-05 -5.8252e-10 0
1.836e-05 2.3633e-10 0
9.7149e-06 1.5383e-10 0
4.2474e-06 -5.054e-10 0
1.4331e-06 2.0605e-10 0
4.1097e-07 2.7165e-10 0
1.0871e-07 -2.6772e-10 0
1.6359e-08 -1.436e-11 0
3.7609e-09 2.6596e-10 0
4.7259e-09 1.7129e-10 0
-4.43e-09 -4.4259e-10 0
0.0001333 -8.1647e-07 0
0.00012827 -7.1466e-07 0
0.00012343 -6.4528e-07 0
0.0001185 -5.9033e-07 0
0.00011327 -5.2742e-07 0
0.00010839 -4.5138e-07 0
0.00010322 -3.6921e-07 0
9.8147e-05 -2.884e-07 0
9.2924e-05 -2.1258e-07 0
8.7702e-05 -1.4566e-07 0
8.2438e-05 -9.3035e-08 0
7.6972e-05 -5.6091e-08 0
7.1683e-05 -3.0972e-08 0
6.5954e-05 -1.4706e-08 0
6.057e-05 -6.5995e-09 0
5.4641e-05 -3.6776e-09 0
4.9027e-05 -1.6524e-09 0
4.299e-05 3.0196e-11 0
3.7127e-05 -9.9581e-11 0
3.0525e-05 -5.4912e-10 0
2.5276e-05 3.578e-10 0
1.836e-05 5.7706e-10 0
9.714e-06 -5.1613e-10 0
4.2476e-06 -2.2924e-10 0
1.4339e-06 5.5241e-10 0
4.1052e-07 -3.8969e-10 0
1.0827e-07 -3.164e-10 0
1.7174e-08 7.1783e-10 0
3.5867e-09 -3.9641e-10 0
4.2463e-09 -4.0582e-10 0
-3.6337e-09 6.4034e-10 0
0.00013321 -3.3975e-07 0
0.00012824 -2.9138e-07 0
0.00012344 -2.6965e-07 0
0.00011853 -2.4719e-07 0
0.00011332 -2.1751e-07 0
0.00010845 -1.8293e-07 0
0.00010328 -1.4533e-07 0
9.8202e-05 -1.0747e-07 0
9.2973e-05 -7.4332e-08 0
8.7741e-05 -4.9217e-08 0
8.2467e-05 -3.0993e-08 0
7.6991e-05 -1.736e-08 0
7.1696e-05 -8.4344e-09 0
6.596e-05 -4.2948e-09 0
6.0573e-05 -2.3506e-09 0
5.4642e-05 -4.8678e-10 0
4.9028e-05 4.1461e-10 0
4.299e-05 -2.919e-10 0
3.7126e-05 -6.8147e-10 0
3.0526e-05 1.1081e-10 0
2.5277e-05 2.5603e-10 0
1.8359e-05 -3.091e-10 0
9.714e-06 4.6304e-11 0
4.2479e-06 4.1749e-10 0
1.4333e-06 -1.2265e-10 0
4.1051e-07 -2.9602e-10 0
1.0876e-07 1.2914e-10 0
1.6912e-08 2.4414e-10 0
3.4356e-09 -2.4954e-10 0
4.3254e-09 -1.8595e-10 0
-3.4606e-09 5.5739e-10 0
0.00013316 -1.2181e-07 0
0.00012823 -1.0229e-07 0
0.00012345 -9.388e-08 0
0.00011855 -8.5374e-08 0
0.00011334 -7.3957e-08 0
0.00010847 -5.967e-08 0
0.0001033 -4.5328e-08 0
9.8224e-05 -3.3276e-08 0
9.299e-05 -2.3285e-08 0
8.7754e-05 -1.4405e-08 0
8.2477e-05 -7.4528e-09 0
7.6997e-05 -3.9028e-09 0
7.1699e-05 -2.8329e-09 0
6.5962e-05 -1.7648e-09 0
6.0574e-05 -2.6969e-10 0
5.4643e-05 2.3806e-10 0
4.9028e-05 -2.3253e-10 0
4.2989e-05 -1.4781e-10 0
3.7127e-05 5.062e-10 0
3.0526e-05 2.25e-10 0
2.5276e-05 -6.034e-10 0
1.8359e-05 -2.6951e-10 0
9.7149e-06 4.1857e-10 0
4.2475e-06 -4.8211e-11 0
1.4327e-06 -2.5559e-10 0
4.1107e-07 4.3666e-10 0
1.0894e-07 5.0068e-11 0
1.6239e-08 -5.2183e-10 0
3.817e-09 2.7013e-10 0
4.6977e-09 2.0214e-10 0
-4.186e-09 -2.8424e-10 0
0.00013313 -3.1771e-08 0
0.00012822 -2.6243e-08 0
0.00012345 -2.5388e-08 0
0.00011855 -2.3068e-08 0
0.00011335 -1.9627e-08 0
0.00010848 -1.6323e-08 0
0.00010331 -1.2953e-08 0
9.8231e-05 -9.1092e-09 0
9.2996e-05 -5.5781e-09 0
8.7758e-05 -3.4972e-09 0
8.2479e-05 -2.6702e-09 0
7.6998e-05 -1.6698e-09 0
7.17e-05 -1.1846e-10 0
6.5963e-05 6.2545e-10 0
6.0574e-05 -6.1576e-11 0
5.4643e-05 -7.807e-10 0
4.9028e-05 -3.2428e-10 0
4.299e-05 4.3313e-10 0
3.7127e-05 2.4435e-10 0
3.0525e-05 -2.0492e-10 0
2.5276e-05 1.0886e-10 0
1.836e-05 3.0357e-10 0
9.7146e-06 -2.737e-10 0
4.2475e-06 -4.3498e-10 0
1.4333e-06 1.7467e-10 0
4.1102e-07 3.7881e-10 0
1.0848e-07 -1.1366e-10 0
1.6274e-08 -2.8468e-10 0
4.0551e-09 2.576e-10 0
4.7418e-09 1.4731e-10 0
-4.51e-09 -4.978e-10 0
0.00013313 -8.6859e-09 0
0.00012822 -7.461e-09 0
0.00012345 -6.9536e-09 0
0.00011856 -6.6439e-09 0
0.00011335 -5.9134e-09 0
0.00010849 -4.305e-09 0
0.00010331 -2.5186e-09 0
9.8233e-05 -1.4707e-09 0
9.2997e-05 -1.1985e-09 0
8.7759e-05 -1.011e-09 0
8.2479e-05 -4.5131e-10 0
7.6999e-05 2.9602e-11 0
7.17e-05 -1.1703e-10 0
6.5963e-05 -4.292e-10 0
6.0574e-05 -1.5396e-10 0
5.4643e-05 4.1057e-10 0
4.9028e-05 3.3993e-10 0
4.2989e-05 -3.5446e-10 0
3.7126e-05 -5.5594e-10 0
3.0526e-05 1.1794e-10 0
2.5277e-05 5.0626e-10 0
1.8359e-05 3.1214e-11 0
9.7139e-06 -2.1374e-10 0
4.248e-06 1.3089e-10 0
1.4337e-06 -3.6674e-12 0
4.1063e-07 -3.6386e-10 0
1.0853e-07 9.3847e-11 0
1.6653e-08 3.699e-10 0
3.5742e-09 -1.3024e-10 0
4.5363e-09 -1.1646e-10 0
-3.8561e-09 -1.3748e-11 0
0.00013313 -1.5826e-09 0
0.00012822 -1.0451e-09 0
0.00012345 -9.7982e-10 0
0.00011856 -4.9211e-10 0
0.00011335 -1.6072e-10 0
0.00010849 -4.7162e-10 0
0.00010331 -1.0071e-09 0
9.8233e-05 -1.072e-09 0
9.2997e-05 -4.6817e-10 0
8.776e-05 3.2039e-10 0
8.248e-05 5.0917e-10 0
7.6999e-05 -3.6096e-11 0
7.17e-05 -5.0293e-10 0
6.5962e-05 -2.6617e-10 0
6.0574e-05 2.3946e-10 0
5.4644e-05 2.6238e-10 0
4.9028e-05 -1.103e-10 0
4.2989e-05 -1.6059e-10 0
3.7126e-05 1.4333e-10 0
3.0526e-05 5.7509e-11 0
2.5276e-05 -3.5896e-10 0
1.8359e-05 -1.8925e-10 0
9.7144e-06 4.1634e-10 0
4.2477e-06 3.7691e-10 0
1.4331e-06 -2.3291e-10 0
4.1081e-07 -3.6749e-10 0
1.0909e-07 9.8629e-11 0
1.6666e-08 2.3513e-10 0
3.1599e-09 -1.7128e-10 0
4.46e-09 -8.931e-11 0
-3.3996e-09 2.9824e-10 0
0.00013313 -1.5077e-10 0
0.00012822 -3.3565e-10 0
0.00012345 -5.2414e-10 0
0.00011856 -9.0288e-10 0
0.00011335 -9.1495e-10 0
0.00010849 -3.0212e-10 0
0.00010331 4.7471e-10 0
9.8233e-05 7.7076e-10 0
9.2997e-05 3.3213e-10 0
8.7759e-05 -4.6553e-10 0
8.2479e-05 -7.4521e-10 0
7.6999e-05 -8.6834e-11 0
7.1701e-05 6.9262e-10 0
6.5963e-05 5.353e-10 0
6.0574e-05 -3.0697e-10 0
5.4642e-05 -6.2886e-10 0
4.9028e-05 -3.876e-11 0
4.299e-05 5.1378e-10 0
3.7127e-05 2.3001e-10 0
3.0525e-05 -3.1811e-10 0
2.5276e-05 -2.4709e-10 0
1.836e-05 1.1459e-10 0
9.7148e-06 2.9206e-11 0
4.2473e-06 -1.3523e-10 0
1.4328e-06 1.741e-10 0
4.1091e-07 3.0229e-10 0
1.0895e-07 -1.7228e-10 0
1.6577e-08 -3.2309e-10 0
3.624e-09 2.9235e-11 0
4.5299e-09 1.1338e-10 0
-3.9675e-09 2.206e-10 0
0.00013313 -2.4312e-10 0
0.00012822 -1.1781e-10 0
0.00012345 1.6306e-10 0
0.00011856 5.2273e-10 0
0.00011335 4.4127e-10 0
0.00010849 -1.5028e-10 0
0.00010331 -7.6257e-10 0
9.8233e-05 -8.8139e-10 0
9.2998e-05 -3.7388e-10 0
8.776e-05 3.9826e-10 0
8.248e-05 7.1297e-10 0
7.6999e-05 2.3241e-10 0
7.17e-05 -3.9838e-10 0
6.5963e-05 -3.6472e-10 0
6.0574e-05 1.5074e-10 0
5.4643e-05 3.624e-10 0
4.9028e-05 5.8858e-11 0
4.2989e-05 -2.7593e-10 0
3.7127e-05 -1.9889e-10 0
3.0526e-05 1.8437e-10 0
2.5276e-05 3.326e-10 0
1.8359e-05 -2.1804e-11 0
9.7143e-06 -3.871e-10 0
4.2479e-06 -2.0534e-10 0
1.4335e-06 2.4596e-10 0
4.1058e-07 3.0024e-10 0
1.0825e-07 -4.8983e-11 0
1.6619e-08 -2.1309e-10 0
4.2547e-09 -3.2981e-11 0
4.5978e-09 6.3855e-11 0
-4.5734e-09 5.1335e-11 0
0.00013313 1.8101e-10 0
0.00012822 1.7594e-10 0
0.00012345 -1.9e-10 0
0.00011856 -4.8633e-10 0
0.00011335 -2.771e-10 0
0.00010849 2.8197e-10 0
0.00010331 6.8355e-10 0
9.8233e-05 6.0818e-10 0
9.2997e-05 1.4168e-10 0
8.7759e-05 -3.4675e-10 0
8.248e-05 -4.7852e-10 0
7.6999e-05 -2.4062e-10 0
7.17e-05 1.5296e-11 0
6.5962e-05 1.1882e-10 0
6.0574e-05 1.9762e-10 0
5.4644e-05 1.6611e-10 0
4.9028e-05 -1.1989e-10 0
4.2989e-05 -2.7613e-10 0
3.7126e-05 2.8476e-11 0
3.0526e-05 2.8371e-10 0
2.5277e-05 3.8635e-11 0
1.8359e-05 -1.7544e-10 0
9.714e-06 5.6244e-11 0
4.2479e-06 1.3544e-10 0
1.4336e-06 -2.2493e-10 0
4.1073e-07 -2.4416e-10 0
1.0834e-07 2.3845e-10 0
1.6493e-08 2.8901e-10 0
3.9101e-09 -7.3319e-11 0
4.6221e-09 -1.1843e-10 0
-4.0898e-09 -2.1228e-10 0
0.00013313 -1.2764e-10 0
0.00012822 -1.934e-10 0
0.00012345 2.4085e-10 0
0.00011856 4.2883e-10 0
0.00011335 7.3147e-11 0
0.00010849 -4.1453e-10 0
0.00010331 -5.5609e-10 0
9.8233e-05 -3.0369e-10 0
9.2998e-05 1.2387e-11 0
8.7759e-05 7.4239e-11 0
8.2479e-05 -4.2751e-11 0
7.6999e-05 1.9996e-11 0
7.1701e-05 2.4472e-10 0
6.5963e-05 1.2884e-10 0
6.0574e-05 -3.417e-10 0
5.4642e-05 -3.9455e-10 0
4.9028e-05 1.8248e-10 0
4.299e-05 4.7875e-10 0
3.7126e-05 2.443e-11 0
3.0525e-05 -3.8375e-10 0
2.5276e-05 -1.3756e-10 0
1.836e-05 2.6126e-10 0
9.7147e-06 2.4347e-10 0
4.2472e-06 -4.5734e-11 0
1.4329e-06 -2.2616e-10 0
4.1113e-07 -1.6626e-10 0
1.0918e-07 1.9446e-11 0
1.6401e-08 1.8691e-10 0
3.0456e-09 2.3266e-10 0
4.5716e-09 -5.4155e-11 0
-3.2565e-09 -4.3268e-10 0
0.00013313 9.7035e-11 0
0.00012822 1.7101e-10 0
0.00012345 -3.1e-10 0
0.00011856 -3.2698e-10 0
0.00011335 2.113e-10 0
0.00010849 5.8464e-10 0
0.00010331 3.9945e-10 0
9.8233e-05 -4.5473e-11 0
9.2997e-05 -1.9736e-10 0
8.776e-05 1.2226e-10 0
8.248e-05 3.976e-10 0
7.6999e-05 6.0643e-11 0
7.1699e-05 -4.806e-10 0
6.5962e-05 -3.6241e-10 0
6.0575e-05 1.989e-10 0
5.4643e-05 2.8413e-10 0
4.9028e-05 -4.8476e-11 0
4.299e-05 -1.1032e-10 0
3.7127e-05 1.0132e-11 0
3.0525e-05 -3.6465e-11 0
2.5276e-05 -7.442e-12 0
1.8359e-05 1.2548e-10 0
9.7148e-06 -1.2765e-11 0
4.2478e-06 -1.4179e-10 0
1.4328e-06 1.355e-10 0
4.1074e-07 1.7908e-10 0
1.0921e-07 -2.7594e-10 0
1.6669e-08 -2.0842e-10 0
3.1599e-09 2.8761e-10 0
4.4871e-09 9.3092e-11 0
-3.5879e-09 -7.0765e-11 0
0.00013313 -9.7522e-11 0
0.00012822 -5.9293e-11 0
0.00012345 4.8931e-10 0
0.00011856 2.9577e-10 0
0.00011335 -4.5209e-10 0
0.00010849 -6.6376e-10 0
0.00010331 -9.8466e-11 0
9.8234e-05 5.2418e-10 0
9.2997e-05 4.8591e-10 0
8.7759e-05 -1.505e-10 0
8.2479e-05 -5.2571e-10 0
7.6999e-05 -1.124e-10 0
7.1701e-05 3.8405e-10 0
6.5962e-05 2.3147e-10 0
6.0574e-05 -6.9237e-11 0
5.4643e-05 -3.2064e-11 0
4.9028e-05 -1.1321e-10 0
4.2989e-05 -2.8728e-10 0
3.7126e-05 5.1509e-11 0
3.0526e-05 4.1954e-10 0
2.5277e-05 3.8049e-11 0
1.8359e-05 -4.1754e-10 0
9.7139e-06 -1.4434e-10 0
4.2482e-06 2.8911e-10 0
1.4337e-06 2.1523e-10 0
4.1049e-07 -7.1476e-11 0
1.0826e-07 -8.9873e-11 0
1.6714e-08 -3.6994e-11 0
4.2473e-09 -2.3087e-10 0
4.5372e-09 -8.5043e-12 0
-4.7475e-09 6.1637e-10 0
0.00013313 3.9998e-10 0
0.00012822 1.0133e-10 0
0.00012345 -5.0819e-10 0
0.00011856 -4.3334e-11 0
0.00011335 9.4609e-10 0
0.00010849 9.486e-10 0
0.00010331 -2.997e-11 0
9.8233e-05 -7.8596e-10 0
9.2998e-05 -5.4125e-10 0
8.776e-05 2.8165e-10 0
8.248e-05 6.1997e-10 0
7.6998e-05 2.3769e-10 0
7.17e-05 -1.9402e-11 0
6.5963e-05 6.9247e-11 0
6.0574e-05 -1.2777e-10 0
5.4642e-05 -3.291e-10 0
4.9028e-05 8.0504e-11 0
4.299e-05 3.4443e-10 0
3.7126e-05 -8.8908e-11 0
3.0525e-05 -2.6537e-10 0
2.5277e-05 6.9821e-11 0
1.836e-05 5.5617e-11 0
9.7141e-06 -9.4372e-11 0
4.2471e-06 1.2285e-10 0
1.4336e-06 4.8081e-11 0
4.1119e-07 -1.8404e-10 0
1.0811e-07 2.1296e-10 0
1.629e-08 1.8543e-10 0
4.4797e-09 -5.2197e-10 0
4.6632e-09 -8.055e-11 0
-4.7758e-09 5.0063e-10 0
0.00013312 8.3119e-10 0
0.00012822 1.1701e-09 0
0.00012345 1.7921e-09 0
0.00011856 9.104e-10 0
0.00011335 -4.7244e-10 0
0.00010849 -3.7808e-10 0
0.00010331 8.3301e-10 0
9.8233e-05 1.462e-09 0
9.2997e-05 8.5313e-10 0
8.7759e-05 -9.1855e-11 0
8.248e-05 -2.9707e-10 0
7.6999e-05 -3.5888e-11 0
7.17e-05 -1.3151e-10 0
6.5962e-05 -1.7413e-10 0
6.0575e-05 3.1406e-10 0
5.4644e-05 4.2205e-10 0
4.9028e-05 -1.0305e-10 0
4.2989e-05 -2.0803e-10 0
3.7127e-05 -4.4726e-12 0
3.0525e-05 -1.7849e-10 0
2.5276e-05 -9.6615e-11 0
1.836e-05 3.6964e-10 0
9.7152e-06 2.0666e-10 0
4.2472e-06 -3.7132e-10 0
1.4325e-06 -2.8695e-10 0
4.1109e-07 2.926e-10 0
1.0917e-07 2.9951e-10 0
1.6461e-08 -2.3105e-10 0
3.2525e-09 -9.1551e-11 0
4.5482e-09 1.6099e-10 0
-3.3256e-09 -4.0336e-10 0
0.00013313 4.7969e-09 0
0.00012822 3.346e-09 0
0.00012345 2.7567e-09 0
0.00011856 3.8976e-09 0
0.00011335 5.0777e-09 0
0.00010848 3.9814e-09 0
0.00010331 1.6541e-09 0
9.8233e-05 4.1387e-10 0
9.2998e-05 6.6008e-10 0
8.7759e-05 9.8342e-10 0
8.2479e-05 5.2785e-10 0
7.6999e-05 1.5266e-10 0
7.1701e-05 4.1542e-10 0
6.5963e-05 3.4172e-10 0
6.0574e-05 -1.6573e-10 0
5.4643e-05 -7.0235e-11 0
4.9028e-05 1.4543e-10 0
4.2989e-05 -1.834e-10 0
3.7126e-05 -7.8354e-11 0
3.0526e-05 3.4043e-10 0
2.5277e-05 -2.0684e-11 0
1.8359e-05 -2.5899e-10 0
9.7145e-06 1.685e-10 0
4.2486e-06 -1.9786e-11 0
1.4329e-06 -2.6429e-10 0
4.0989e-07 2.8906e-10 0
1.0931e-07 3.5702e-11 0
1.7256e-08 -3.9596e-10 0
2.6586e-09 4.8282e-10 0
4.3143e-09 1.9942e-10 0
-2.7402e-09 -7.0292e-10 0
0.00013313 1.6903e-08 0
0.00012822 1.5016e-08 0
0.00012345 1.4911e-08 0
0.00011856 1.274e-08 0
0.00011335 1.0331e-08 0
0.00010849 1.0126e-08 0
0.00010331 1.0365e-08 0
9.8231e-05 8.5979e-09 0
9.2995e-05 5.4231e-09 0
8.7759e-05 3.1165e-09 0
8.248e-05 2.2354e-09 0
7.6998e-05 1.3793e-09 0
7.1699e-05 3.3408e-10 0
6.5963e-05 1.4549e-10 0
6.0574e-05 2.1173e-10 0
5.4642e-05 -1.8707e-10 0
4.9028e-05 -8.8009e-12 0
4.2991e-05 4.9889e-10 0
3.7126e-05 1.2171e-10 0
3.0525e-05 -2.3018e-10 0
2.5277e-05 3.8911e-11 0
1.836e-05 -8.1649e-11 0
9.7137e-06 -2.7957e-10 0
4.248e-06 1.7092e-10 0
1.4341e-06 4.266e-10 0
4.1036e-07 -2.0196e-10 0
1.0816e-07 -5.8208e-10 0
1.6819e-08 3.042e-10 0
3.9535e-09 5.8606e-10 0
4.5493e-09 -2.8234e-10 0
-4.338e-09 -5.8525e-11 0
0.00013314 5.0957e-08 0
0.00012823 4.3415e-08 0
0.00012345 4.2717e-08 0
0.00011856 4.4486e-08 0
0.00011335 4.3754e-08 0
0.00010848 3.797e-08 0
0.0001033 3.0515e-08 0
9.8229e-05 2.475e-08 0
9.2993e-05 1.9968e-08 0
8.7754e-05 1.4319e-08 0
8.2476e-05 8.6368e-09 0
7.6997e-05 4.9641e-09 0
7.1699e-05 2.8466e-09 0
6.5961e-05 1.1484e-09 0
6.0574e-05 6.0716e-10 0
5.4644e-05 7.3134e-10 0
4.9028e-05 9.5954e-11 0
4.2989e-05 -2.1095e-10 0
3.7127e-05 2.0352e-10 0
3.0525e-05 -6.8052e-11 0
2.5275e-05 -1.8915e-10 0
1.836e-05 2.764e-10 0
9.7151e-06 -1.2279e-10 0
4.2468e-06 -1.9304e-10 0
1.4331e-06 4.903e-10 0
4.1206e-07 -2.653e-10 0
1.0829e-07 -5.0974e-10 0
1.5336e-08 7.1525e-10 0
4.7711e-09 -9.2125e-12 0
5.0724e-09 -4.7159e-10 0
-5.5148e-09 4.1077e-10 0
0.00013316 1.2549e-07 0
0.00012824 1.1005e-07 0
0.00012345 1.0551e-07 0
0.00011856 1.0441e-07 0
0.00011335 1.0447e-07 0
0.00010848 1.0367e-07 0
0.0001033 9.6482e-08 0
9.8216e-05 8.1265e-08 0
9.2981e-05 6.2786e-08 0
8.7746e-05 4.609e-08 0
8.2469e-05 3.1941e-08 0
7.699e-05 1.9848e-08 0
7.1695e-05 1.1275e-08 0
6.5961e-05 6.1591e-09 0
6.0572e-05 2.5131e-09 0
5.4642e-05 6.7557e-10 0
4.9028e-05 5.9656e-10 0
4.2989e-05 1.2448e-10 0
3.7126e-05 -2.8103e-10 0
3.0526e-05 2.9794e-10 0
2.5276e-05 2.9337e-10 0
1.8359e-05 -2.1075e-10 0
9.715e-06 -3.1401e-12 0
4.2479e-06 1.8669e-10 0
1.4322e-06 -3.1136e-10 0
4.114e-07 -2.8064e-10 0
1.0954e-07 6.8066e-10 0
1.5783e-08 1.5476e-10 0
3.2958e-09 -9.0793e-10 0
4.8109e-09 1.5107e-10 0
-3.7379e-09 3.0767e-10 0
0.00013318 2.3058e-07 0
0.00012826 2.1184e-07 0
0.00012347 2.1113e-07 0
0.00011856 2.2213e-07 0
0.00011335 2.3029e-07 0
0.00010847 2.2924e-07 0
0.00010328 2.2038e-07 0
9.8197e-05 2.0293e-07 0
9.2955e-05 1.7402e-07 0
8.7718e-05 1.3605e-07 0
8.2445e-05 9.7357e-08 0
7.6973e-05 6.4322e-08 0
7.1681e-05 3.8324e-08 0
6.5951e-05 2.0521e-08 0
6.0569e-05 1.051e-08 0
5.464e-05 4.4851e-09 0
4.9026e-05 1.3308e-09 0
4.299e-05 9.3914e-10 0
3.7126e-05 3.9604e-10 0
3.0525e-05 -1.7983e-10 0
2.5277e-05 3.0217e-10 0
1.836e-05 -3.3338e-11 0
9.7132e-06 -1.7887e-10 0
4.248e-06 3.8061e-10 0
1.4341e-06 -4.9178e-10 0
4.0983e-07 -1.5852e-10 0
1.0878e-07 1.028e-09 0
1.7883e-08 -6.1957e-10 0
2.3233e-09 -6.7304e-10 0
3.8803e-09 6.5902e-10 0
-1.8018e-09 4.4533e-11 0
0.0001332 3.0429e-07 0
0.00012829 2.8691e-07 0
0.0001235 2.9082e-07 0
0.0001186 3.2414e-07 0
0.00011337 3.7501e-07 0
0.00010848 4.1925e-07 0
0.00010327 4.3734e-07 0
9.8168e-05 4.245e-07 0
9.2913e-05 3.856e-07 0
8.7666e-05 3.2631e-07 0
8.2389e-05 2.5329e-07 0
7.6924e-05 1.7877e-07 0
7.1646e-05 1.151e-07 0
6.5927e-05 6.6669e-08 0
6.0553e-05 3.4253e-08 0
5.4633e-05 1.6595e-08 0
4.9023e-05 7.145e-09 0
4.2987e-05 1.97e-09 0
3.7127e-05 8.8425e-10 0
3.0525e-05 5.885e-10 0
2.5276e-05 -3.1886e-10 0
1.836e-05 4.0024e-12 0
9.7142e-06 5.0872e-10 0
4.2466e-06 -2.4841e-10 0
1.4346e-06 -3.4854e-10 0
4.1068e-07 6.9785e-10 0
1.073e-07 -2.4894e-10 0
1.763e-08 -9.2742e-10 0
4.134e-09 9.3528e-10 0
3.9946e-09 2.3081e-10 0
-3.8095e-09 -3.8604e-10 0
0.00013323 3.0158e-07 0
0.00012835 2.9456e-07 0
0.00012358 3.2608e-07 0
0.00011868 3.8727e-07 0
0.00011346 4.7541e-07 0
0.00010855 5.7812e-07 0
0.00010331 6.7087e-07 0
9.8164e-05 7.2405e-07 0
9.2864e-05 7.188e-07 0
8.7585e-05 6.5617e-07 0
8.2292e-05 5.5098e-07 0
7.6823e-05 4.2216e-07 0
7.1557e-05 2.9231e-07 0
6.5863e-05 1.8301e-07 0
6.0511e-05 1.0256e-07 0
5.4608e-05 5.0362e-08 0
4.9012e-05 2.2762e-08 0
4.2983e-05 9.2295e-09 0
3.7123e-05 2.5132e-09 0
3.0525e-05 1.1876e-09 0
2.5276e-05 4.3431e-10 0
1.8358e-05 -3.3776e-10 0
9.7152e-06 5.3591e-10 0
4.2482e-06 -1.1721e-10 0
1.4322e-06 -1.775e-10 0
4.1115e-07 6.4317e-10 0
1.0884e-07 -1.0167e-09 0
1.5498e-08 -5.4154e-11 0
5.4078e-09 1.2909e-09 0
5.2745e-09 -5.3386e-10 0
-7.0212e-09 -3.4585e-10 0
0.00013328 2.1749e-07 0
0.00012843 1.9784e-07 0
0.0001237 2.6393e-07 0
0.00011883 3.9677e-07 0
0.00011361 5.6871e-07 0
0.00010869 7.4602e-07 0
0.00010342 9.0643e-07 0
9.8229e-05 1.0347e-06 0
9.2864e-05 1.1079e-06 0
8.7511e-05 1.1006e-06 0
8.2157e-05 1.0048e-06 0
7.6659e-05 8.3842e-07 0
7.1393e-05 6.3388e-07 0
6.5721e-05 4.2931e-07 0
6.041e-05 2.6029e-07 0
5.4545e-05 1.406e-07 0
4.8976e-05 6.5856e-08 0
4.2967e-05 2.7866e-08 0
3.7117e-05 1.1163e-08 0
3.0521e-05 2.8172e-09 0
2.5276e-05 6.7307e-10 0
1.8358e-05 9.3409e-10 0
9.7137e-06 -2.414e-10 0
4.2497e-06 -2.2095e-10 0
1.432e-06 9.0647e-10 0
4.095e-07 -6.6525e-10 0
1.1075e-07 -6.3706e-10 0
1.5935e-08 1.6332e-09 0
3.4598e-09 -7.4294e-10 0
5.3172e-09 -7.6325e-10 0
-5.4295e-09 8.3759e-10 0
0.00013337 4.2831e-08 0
0.00012856 -1.3376e-08 0
0.0001239 8.2475e-08 0
0.00011909 2.9696e-07 0
0.00011389 5.9249e-07 0
0.00010894 9.2138e-07 0
0.00010363 1.2155e-06 0
9.8368e-05 1.4316e-06 0
9.293e-05 1.5653e-06 0
8.7489e-05 1.6171e-06 0
8.2039e-05 1.5719e-06 0
7.6454e-05 1.4162e-06 0
7.1142e-05 1.1666e-06 0
6.5473e-05 8.6682e-07 0
6.0203e-05 5.7216e-07 0
5.4402e-05 3.3446e-07 0
4.8892e-05 1.7267e-07 0
4.2922e-05 7.6739e-08 0
3.7099e-05 3.0854e-08 0
3.0515e-05 1.1133e-08 0
2.5272e-05 2.1434e-09 0
1.8359e-05 1.5663e-09 0
9.7146e-06 5.3477e-10 0
4.2469e-06 -8.6799e-10 0
1.4335e-06 8.6429e-10 0
4.1038e-07 -4.4646e-10 0
1.0887e-07 3.0747e-11 0
1.7779e-08 1.0166e-09 0
1.9707e-09 -1.7535e-09 0
3.6614e-09 -7.1034e-12 0
-1.0176e-09 1.0161e-09 0
0.00013356 -3.0229e-07 0
0.00012882 -4.3674e-07 0
0.00012425 -3.0568e-07 0
0.00011952 5.4745e-08 0
0.00011435 5.3566e-07 0
0.00010939 1.0523e-06 0
0.00010399 1.5485e-06 0
9.8612e-05 1.9467e-06 0
9.3054e-05 2.1883e-06 0
8.7507e-05 2.2782e-06 0
8.1952e-05 2.2511e-06 0
7.6256e-05 2.1175e-06 0
7.084e-05 1.8642e-06 0
6.5116e-05 1.5038e-06 0
5.986e-05 1.09e-06 0
5.4125e-05 6.9577e-07 0
4.8707e-05 3.8882e-07 0
4.2819e-05 1.9093e-07 0
3.7048e-05 7.9762e-08 0
3.0495e-05 2.9114e-08 0
2.5265e-05 1.062e-08 0
1.8356e-05 2.3364e-09 0
9.7157e-06 3.0946e-10 0
4.2451e-06 6.5011e-10 0
1.4329e-06 -7.208e-10 0
4.1345e-07 5.0403e-10 0
1.0673e-07 1.4351e-09 0
1.6855e-08 -2.2155e-09 0
3.784e-09 1.9061e-10 0
3.3497e-09 1.6112e-09 0
-1.1725e-09 -1.3417e-09 0
0.00013395 -8.3389e-07 0
0.00012934 -1.1787e-06 0
0.00012492 -1.0047e-06 0
0.00012027 -4.1807e-07 0
0.0001151 3.938e-07 0
0.00011008 1.222e-06 0
0.00010458 1.9489e-06 0
9.9041e-05 2.5451e-06 0
9.3287e-05 2.9685e-06 0
8.7555e-05 3.1643e-06 0
8.186e-05 3.1423e-06 0
7.6052e-05 2.9712e-06 0
7.0523e-05 2.6958e-06 0
6.4689e-05 2.3064e-06 0
5.9379e-05 1.8091e-06 0
5.368e-05 1.2678e-06 0
4.8366e-05 7.7477e-07 0
4.2604e-05 4.1092e-07 0
3.6935e-05 1.8916e-07 0
3.0443e-05 7.2521e-08 0
2.5247e-05 2.6615e-08 0
1.835e-05 8.6112e-09 0
9.7113e-06 -5.1969e-10 0
4.2467e-06 1.9421e-09 0
1.4332e-06 3.0778e-10 0
4.1226e-07 -4.8753e-10 0
1.0797e-07 1.5568e-09 0
1.5178e-08 -2.4942e-09 0
4.9441e-09 1.3571e-09 0
5.2221e-09 1.4377e-09 0
-5.4231e-09 -2.3839e-09 0
0.00013488 -1.7012e-06 0
0.00013049 -2.4107e-06 0
0.00012621 -2.043e-06 0
0.00012155 -1.0676e-06 0
0.00011629 1.8773e-07 0
0.00011109 1.48e-06 0
0.00010537 2.5895e-06 0
9.9633e-05 3.401e-06 0
9.3665e-05 3.9435e-06 0
8.7683e-05 4.251e-06 0
8.1753e-05 4.2942e-06 0
7.5786e-05 4.0823e-06 0
7.0153e-05 3.7078e-06 0
6.4219e-05 3.2477e-06 0
5.8805e-05 2.6916e-06 0
5.3067e-05 2.038e-06 0
4.7827e-05 1.3673e-06 0
4.2216e-05 7.9071e-07 0
3.6708e-05 3.9148e-07 0
3.0332e-05 1.6811e-07 0
2.5201e-05 6.0788e-08 0
1.8336e-05 1.9217e-08 0
9.7043e-06 4.9786e-09 0
4.2465e-06 1.015e-09 0
1.4352e-06 1.7198e-09 0
4.0798e-07 -4.3713e-10 0
1.0971e-07 -1.7986e-09 0
1.6277e-08 1.7327e-09 0
3.0819e-09 2.878e-10 0
6.3223e-09 -1.9441e-09 0
-6.9408e-09 1.5666e-09 0
0.00013683 -3.6598e-06 0
0.00013253 -4.3621e-06 0
0.00012798 -3.3841e-06 0
0.00012297 -1.7501e-06 0
0.00011745 4.3008e-08 0
0.0001121 1.799e-06 0
0.00010622 3.3807e-06 0
0.00010025 4.5995e-06 0
9.4045e-05 5.3267e-06 0
8.7849e-05 5.6445e-06 0
8.1664e-05 5.6864e-06 0
7.5445e-05 5.4668e-06 0
6.9659e-05 4.9929e-06 0
6.365e-05 4.3742e-06 0
5.8157e-05 3.7062e-06 0
5.2332e-05 2.9663e-06 0
4.7088e-05 2.1509e-06 0
4.1607e-05 1.3634e-06 0
3.6302e-05 7.3319e-07 0
3.0116e-05 3.3862e-07 0
2.5105e-05 1.343e-07 0
1.8298e-05 4.0227e-08 0
9.6943e-06 1.5141e-08 0
4.2436e-06 3.8941e-09 0
1.4334e-06 -1.229e-09 0
4.0751e-07 2.0481e-09 0
1.102e-07 -3.0296e-09 0
1.7455e-08 3.3092e-09 0
2.18e-09 3.6151e-10 0
5.5113e-09 -3.6569e-09 0
-4.4067e-09 4.7722e-09 0
0.00013788 -8.2428e-06 0
0.00013347 -6.6988e-06 0
0.0001283 -4.5973e-06 0
0.00012285 -2.2795e-06 0
0.00011707 4.7357e-08 0
0.00011168 2.2134e-06 0
0.000106 4.1443e-06 0
0.00010026 5.7904e-06 0
9.4086e-05 6.9616e-06 0
8.7786e-05 7.4691e-06 0
8.147e-05 7.4345e-06 0
7.5043e-05 7.1053e-06 0
6.9024e-05 6.545e-06 0
6.29e-05 5.7635e-06 0
5.7379e-05 4.8867e-06 0
5.1499e-05 4.0114e-06 0
4.619e-05 3.0858e-06 0
4.0765e-05 2.1151e-06 0
3.5666e-05 1.247e-06 0
2.9733e-05 6.1871e-07 0
2.4919e-05 2.6018e-07 0
1.8221e-05 9.0444e-08 0
9.6712e-06 2.8868e-08 0
4.2372e-06 1.0099e-08 0
1.4278e-06 -1.7573e-09 0
4.1089e-07 1.3229e-09 0
1.0952e-07 1.3349e-09 0
1.5866e-08 -6.955e-10 0
3.961e-09 5.2468e-10 0
3.9875e-09 -4.9406e-11 0
-2.2588e-09 -8.0329e-10 0
0.00013414 -1.3967e-05 0
0.00012994 -9.3491e-06 0
0.00012518 -5.8118e-06 0
0.0001199 -2.7468e-06 0
0.00011418 2.5514e-08 0
0.00010882 2.5384e-06 0
0.00010334 4.7493e-06 0
9.8191e-05 6.6518e-06 0
9.2773e-05 8.2511e-06 0
8.6951e-05 9.3057e-06 0
8.0798e-05 9.5215e-06 0
7.4398e-05 9.0704e-06 0
6.8254e-05 8.3273e-06 0
6.1945e-05 7.3961e-06 0
5.6376e-05 6.2986e-06 0
5.0523e-05 5.1842e-06 0
4.5173e-05 4.1196e-06 0
3.9724e-05 3.0122e-06 0
3.477e-05 1.9237e-06 0
2.9127e-05 1.0385e-06 0
2.4593e-05 4.6084e-07 0
1.808e-05 1.7834e-07 0
9.622e-06 5.894e-08 0
4.2208e-06 1.365e-08 0
1.4222e-06 5.097e-09 0
4.1332e-07 -1.6861e-09 0
1.066e-07 3.3455e-09 0
1.5362e-08 -1.7969e-09 0
5.9792e-09 -1.4018e-09 0
2.1478e-09 4.9783e-09 0
-1.9159e-09 -7.4067e-09 0
0.00012836 -1.7406e-05 0
0.0001242 -1.208e-05 0
0.00011977 -7.391e-06 0
0.00011483 -3.3783e-06 0
0.00010939 -2.6783e-08 0
0.00010421 2.7707e-06 0
9.8733e-05 5.1405e-06 0
9.3662e-05 7.1415e-06 0
8.8901e-05 8.8685e-06 0
8.4207e-05 1.0384e-05 0
7.8965e-05 1.1313e-05 0
7.3058e-05 1.1215e-05 0
6.7137e-05 1.0348e-05 0
6.0798e-05 9.2076e-06 0
5.511e-05 7.9191e-06 0
4.9306e-05 6.5379e-06 0
4.4019e-05 5.2341e-06 0
3.8536e-05 3.9991e-06 0
3.3632e-05 2.7377e-06 0
2.8255e-05 1.5933e-06 0
2.4075e-05 7.661e-07 0
1.7839e-05 3.1115e-07 0
9.5281e-06 1.1022e-07 0
4.1883e-06 2.3855e-08 0
1.4164e-06 1.1387e-08 0
4.1123e-07 7.9953e-10 0
1.0439e-07 -8.0799e-10 0
1.7485e-08 2.7465e-09 0
5.7823e-09 -2.5814e-09 0
9.6337e-10 3.4414e-09 0
-7.4066e-10 -3.866e-09 0
0.00012214 -2.1186e-05 0
0.0001178 -1.4481e-05 0
0.00011316 -8.8128e-06 0
0.00010824 -4.0901e-06 0
0.00010294 -1.5086e-07 0
9.8102e-05 3.0418e-06 0
9.3018e-05 5.5742e-06 0
8.8016e-05 7.5805e-06 0
8.3115e-05 9.1599e-06 0
7.8927e-05 1.0578e-05 0
7.4949e-05 1.198e-05 0
7.0278e-05 1.277e-05 0
6.5155e-05 1.236e-05 0
5.9253e-05 1.1134e-05 0
5.3607e-05 9.6601e-06 0
4.7784e-05 8.0584e-06 0
4.2647e-05 6.4649e-06 0
3.7221e-05 5.0281e-06 0
3.2303e-05 3.6412e-06 0
2.7108e-05 2.2686e-06 0
2.3321e-05 1.1769e-06 0
1.7452e-05 5.0812e-07 0
9.3673e-06 1.794e-07 0
4.1321e-06 5.2948e-08 0
1.4069e-06 1.5343e-08 0
4.0199e-07 4.8986e-09 0
1.0641e-07 -2.3408e-09 0
1.7804e-08 3.0017e-09 0
2.7291e-09 -5.3943e-10 0
3.9009e-09 -3.2118e-09 0
-2.7775e-09 4.8684e-09 0
0.00011424 -2.4255e-05 0
0.00010973 -1.6471e-05 0
0.00010516 -9.925e-06 0
0.00010033 -4.5699e-06 0
9.5152e-05 -3.0869e-07 0
9.0389e-05 3.1199e-06 0
8.5638e-05 5.834e-06 0
8.132e-05 7.9579e-06 0
7.6759e-05 9.5453e-06 0
7.2363e-05 1.0623e-05 0
6.8692e-05 1.1687e-05 0
6.526e-05 1.2946e-05 0
6.1547e-05 1.3548e-05 0
5.6723e-05 1.2851e-05 0
5.1697e-05 1.1382e-05 0
4.5965e-05 9.6495e-06 0
4.0969e-05 7.8119e-06 0
3.5734e-05 6.1053e-06 0
3.0841e-05 4.5689e-06 0
2.5709e-05 3.0396e-06 0
2.2303e-05 1.6788e-06 0
1.6876e-05 7.7258e-07 0
9.1163e-06 2.8027e-07 0
4.0423e-06 9.4859e-08 0
1.3833e-06 2.5399e-08 0
3.8985e-07 3.105e-09 0
1.0885e-07 4.1845e-09 0
1.6974e-08 -2.7776e-09 0
-1.3567e-09 2.9604e-09 0
1.1074e-08 -4.2192e-09 0
-1.0423e-08 6.5152e-09 0
0.00010545 -2.649e-05 0
0.00010083 -1.7918e-05 0
9.6065e-05 -1.0705e-05 0
9.1174e-05 -4.8349e-06 0
8.6211e-05 -2.1506e-07 0
8.1794e-05 3.2541e-06 0
7.7156e-05 5.9304e-06 0
7.3012e-05 7.9499e-06 0
6.9264e-05 9.6048e-06 0
6.5473e-05 1.0783e-05 0
6.1684e-05 1.141e-05 0
5.84e-05 1.2172e-05 0
5.5812e-05 1.3236e-05 0
5.2409e-05 1.3571e-05 0
4.8764e-05 1.2683e-05 0
4.3706e-05 1.1105e-05 0
3.8949e-05 9.1858e-06 0
3.3974e-05 7.2355e-06 0
2.9263e-05 5.4921e-06 0
2.4118e-05 3.8483e-06 0
2.1003e-05 2.2618e-06 0
1.609e-05 1.0897e-06 0
8.7403e-06 4.2641e-07 0
3.9101e-06 1.4327e-07 0
1.3327e-06 4.1896e-08 0
3.8284e-07 3.4676e-09 0
1.0491e-07 9.8221e-09 0
1.6978e-08 -6.1048e-09 0
-3.2242e-09 3.0788e-09 0
1.5041e-08 -2.0459e-10 0
-1.4861e-08 -4.0301e-10 0
9.5352e-05 -2.8485e-05 0
9.0552e-05 -1.8718e-05 0
8.5742e-05 -1.0858e-05 0
8.0943e-05 -4.7997e-06 0
7.5931e-05 -6.9288e-08 0
7.182e-05 3.4415e-06 0
6.7886e-05 6.0183e-06 0
6.4075e-05 7.8914e-06 0
6.0472e-05 9.1966e-06 0
5.7401e-05 1.0388e-05 0
5.445e-05 1.1175e-05 0
5.1133e-05 1.1505e-05 0
4.8733e-05 1.2051e-05 0
4.6107e-05 1.2807e-05 0
4.3969e-05 1.284e-05 0
4.0406e-05 1.1937e-05 0
3.6414e-05 1.0334e-05 0
3.1851e-05 8.3412e-06 0
2.7493e-05 6.4024e-06 0
2.2416e-05 4.6377e-06 0
1.942e-05 2.8961e-06 0
1.5088e-05 1.4524e-06 0
8.212e-06 6.0634e-07 0
3.7176e-06 2.0586e-07 0
1.2576e-06 5.874e-08 0
3.73e-07 1.4432e-08 0
9.6585e-08 5.8409e-09 0
1.4992e-08 -3.3167e-09 0
1.4765e-09 1.5331e-09 0
8.6224e-09 1.0677e-09 0
-9.4421e-09 -2.7195e-09 0
8.4356e-05 -2.9366e-05 0
7.9232e-05 -1.8784e-05 0
7.4224e-05 -1.0433e-05 0
6.9504e-05 -4.1983e-06 0
6.4985e-05 2.1111e-07 0
6.0958e-05 3.5392e-06 0
5.7364e-05 5.816e-06 0
5.43e-05 7.5822e-06 0
5.1384e-05 8.7419e-06 0
4.8397e-05 9.5302e-06 0
4.6158e-05 1.0268e-05 0
4.3574e-05 1.0743e-05 0
4.1477e-05 1.0959e-05 0
3.8984e-05 1.1323e-05 0
3.7326e-05 1.1636e-05 0
3.5293e-05 1.1489e-05 0
3.2754e-05 1.069e-05 0
2.9131e-05 9.1387e-06 0
2.5367e-05 7.2208e-06 0
2.0607e-05 5.3658e-06 0
1.761e-05 3.5304e-06 0
1.3836e-05 1.8519e-06 0
7.5359e-06 8.0171e-07 0
3.4355e-06 2.8608e-07 0
1.1691e-06 7.7115e-08 0
3.4291e-07 2.8818e-08 0
9.3523e-08 -8.611e-10 0
8.8158e-09 1.9714e-09 0
1.027e-08 1.9096e-09 0
-3.5582e-09 -2.535e-09 0
3.9476e-09 2.6889e-09 0
7.202e-05 -2.9351e-05 0
6.6427e-05 -1.7795e-05 0
6.1574e-05 -9.3911e-06 0
5.6693e-05 -3.3123e-06 0
5.273e-05 7.437e-07 0
4.9389e-05 3.561e-06 0
4.6454e-05 5.5081e-06 0
4.3653e-05 6.8333e-06 0
4.1524e-05 7.8432e-06 0
3.9249e-05 8.5163e-06 0
3.7294e-05 8.976e-06 0
3.5247e-05 9.3271e-06 0
3.3695e-05 9.6045e-06 0
3.1908e-05 9.828e-06 0
3.0211e-05 9.9334e-06 0
2.8613e-05 9.8457e-06 0
2.7342e-05 9.6808e-06 0
2.5178e-05 9.0162e-06 0
2.2545e-05 7.631e-06 0
1.852e-05 5.9262e-06 0
1.5628e-05 4.0962e-06 0
1.2306e-05 2.2597e-06 0
6.7195e-06 1.0015e-06 0
3.0519e-06 3.7461e-07 0
1.0609e-06 1.0169e-07 0
2.9404e-07 3.7745e-08 0
9.3901e-08 -7.0522e-10 0
1.1631e-09 4.381e-09 0
1.4969e-08 1.302e-09 0
-9.753e-09 -4.8917e-09 0
1.0985e-08 6.3184e-09 0
5.846e-05 -2.789e-05 0
5.2242e-05 -1.5656e-05 0
4.7403e-05 -7.4686e-06 0
4.3069e-05 -2.2325e-06 0
3.9743e-05 1.1766e-06 0
3.7045e-05 3.2904e-06 0
3.4824e-05 4.8692e-06 0
3.2896e-05 5.8083e-06 0
3.1196e-05 6.5377e-06 0
2.9551e-05 7.0025e-06 0
2.815e-05 7.3575e-06 0
2.6792e-05 7.6055e-06 0
2.5349e-05 7.7286e-06 0
2.4196e-05 7.889e-06 0
2.3194e-05 8.0846e-06 0
2.1707e-05 7.9238e-06 0
2.0753e-05 7.6655e-06 0
1.953e-05 7.5252e-06 0
1.8352e-05 7.0026e-06 0
1.5706e-05 5.9596e-06 0
1.3346e-05 4.4376e-06 0
1.0478e-05 2.5998e-06 0
5.7375e-06 1.1903e-06 0
2.5797e-06 4.5666e-07 0
9.1282e-07 1.319e-07 0
2.4174e-07 4.1863e-08 0
8.5213e-08 4.4612e-09 0
-1.6341e-09 3.6883e-09 0
1.2812e-08 -6.5921e-10 0
-6.8167e-09 -4.3598e-10 0
7.8171e-09 2.7765e-09 0
4.2782e-05 -2.4542e-05 0
3.6299e-05 -1.1779e-05 0
3.1858e-05 -4.7505e-06 0
2.8565e-05 -9.1258e-07 0
2.6061e-05 1.3377e-06 0
2.4533e-05 2.7391e-06 0
2.3029e-05 3.7003e-06 0
2.1805e-05 4.3073e-06 0
2.0696e-05 4.8258e-06 0
1.9791e-05 5.0887e-06 0
1.873e-05 5.2741e-06 0
1.7904e-05 5.4886e-06 0
1.711e-05 5.5337e-06 0
1.6157e-05 5.5955e-06 0
1.5589e-05 5.7006e-06 0
1.4699e-05 5.7028e-06 0
1.4182e-05 5.5015e-06 0
1.3095e-05 5.282e-06 0
1.2529e-05 5.0642e-06 0
1.1466e-05 4.8358e-06 0
1.0259e-05 4.1381e-06 0
8.1902e-06 2.6675e-06 0
4.51e-06 1.2954e-06 0
2.0191e-06 5.1233e-07 0
7.1387e-07 1.5609e-07 0
1.8928e-07 4.6578e-08 0
6.5029e-08 6.9989e-09 0
1.3248e-10 4.3703e-09 0
8.1938e-09 -2.301e-09 0
-2.6886e-09 3.2914e-09 0
2.5317e-09 -3.6007e-09 0
2.4416e-05 -1.8678e-05 0
1.8584e-05 -6.3337e-06 0
1.5267e-05 -1.8722e-06 0
1.3779e-05 -2.103e-07 0
1.2666e-05 9.7224e-07 0
1.1973e-05 1.6884e-06 0
1.1315e-05 2.0885e-06 0
1.078e-05 2.4161e-06 0
1.0293e-05 2.5855e-06 0
9.8022e-06 2.7799e-06 0
9.3722e-06 2.8367e-06 0
8.9689e-06 2.9099e-06 0
8.5497e-06 2.9587e-06 0
8.0705e-06 2.9946e-06 0
7.9439e-06 2.9917e-06 0
7.3107e-06 3.0022e-06 0
7.16e-06 2.9559e-06 0
6.8492e-06 2.8426e-06 0
6.2436e-06 2.6737e-06 0
5.779e-06 2.5346e-06 0
5.7168e-06 2.5733e-06 0
4.8934e-06 1.9893e-06 0
2.7807e-06 1.0593e-06 0
1.2757e-06 4.6343e-07 0
4.4922e-07 1.478e-07 0
1.2478e-07 4.6153e-08 0
3.9629e-08 7.952e-09 0
1.0797e-09 4.145e-09 0
5.3448e-09 -1.6688e-09 0
-2.341e-09 2.114e-09 0
1.8954e-09 -1.597e-09 0
0 0 0
0 0 0
0 0 0
0 0 0
0 0 0
0 0 0
0 0 0
0 0 0
0 0 0
0 0 0
0 0 0
0 0 0
0 0 0
0 0 0
0 0 0
0 0 0
0 0 0
0 0 0
0 0 0
0 0 0
0 0 0
0 0 0
0 0 0
0 0 0
0 0 0
0 0 0
0 0 0
0 0 0
0 0 0
0 0 0
0 0 0
0.00014084 -3.3345e-05 0
0.00013766 -3.2106e-05 0
0.00013989 -3.1703e-05 0
0.00014274 -3.303e-05 0
0.00013557 -3.2744e-05 0
0.00013219 -3.099e-05 0
0.00013451 -3.0595e-05 0
0.00013012 -3.1906e-05 0
0.00012698 -3.0051e-05 0
0.00012921 -2.983e-05 0
0.00012471 -3.086e-05 0
0.00012162 -2.9234e-05 0
0.00012375 -2.8956e-05 0
0.00011932 -2.9681e-05 0
0.00011618 -2.8454e-05 0
0.00011838 -2.7818e-05 0
0.00011393 -2.89e-05 0
0.00011066 -2.7451e-05 0
0.00011302 -2.6926e-05 0
0.00010851 -2.7899e-05 0
0.00010543 -2.6617e-05 0
0.00010757 -2.6151e-05 0
0.00010314 -2.7033e-05 0
9.9758e-05 -2.5483e-05 0
0.00010201 -2.5124e-05 0
9.7488e-05 -2.6006e-05 0
9.4461e-05 -2.4725e-05 0
9.6667e-05 -2.4214e-05 0
9.2385e-05 -2.5038e-05 0
8.8834e-05 -2.3416e-05 0
9.1012e-05 -2.3164e-05 0
8.6591e-05 -2.3661e-05 0
8.3352e-05 -2.2219e-05 0
8.5474e-05 -2.1908e-05 0
8.1316e-05 -2.2633e-05 0
7.775e-05 -2.0989e-05 0
7.9869e-05 -2.0732e-05 0
7.5727e-05 -2.0895e-05 0
7.193e-05 -1.8979e-05 0
7.402e-05 -1.9075e-05 0
7.0117e-05 -1.8855e-05 0
6.6072e-05 -1.6822e-05 0
6.8095e-05 -1.6994e-05 0
6.382e-05 -1.6799e-05 0
5.9616e-05 -1.4874e-05 0
6.1971e-05 -1.4898e-05 0
5.7382e-05 -1.4863e-05 0
5.3306e-05 -1.3006e-05 0
5.5608e-05 -1.2986e-05 0
5.0868e-05 -1.3089e-05 0
4.6556e-05 -1.1161e-05 0
4.9015e-05 -1.1132e-05 0
4.4118e-05 -1.1225e-05 0
3.9727e-05 -9.339e-06 0
4.2317e-05 -9.2607e-06 0
3.7047e-05 -9.4416e-06 0
3.2719e-05 -7.604e-06 0
3.5345e-05 -7.5648e-06 0
3.0166e-05 -7.6285e-06 0
2.5928e-05 -5.7327e-06 0
2.832e-05 -5.6258e-06 0
2.3469e-05 -5.7723e-06 0
1.7908e-05 -3.6046e-06 0
2.1219e-05 -3.5782e-06 0
1.4347e-05 -3.7583e-06 0
9.4645e-06 -1.7913e-06 0
1.2634e-05 -1.8976e-06 0
6.5489e-06 -1.8489e-06 0
4.0055e-06 -7.2622e-07 0
5.6937e-06 -8.197e-07 0
2.5131e-06 -7.3687e-07 0
1.3709e-06 -2.4307e-07 0
2.1752e-06 -2.9794e-07 0
7.0923e-07 -2.3895e-07 0
3.8256e-07 -6.4999e-08 0
6.1576e-07 -8.9834e-08 0
2.0881e-07 -6.0773e-08 0
1.0026e-07 -1.8219e-08 0
1.8027e-07 -2.3114e-08 0
3.2588e-08 -1.7396e-08 0
1.5891e-08 -2.9728e-09 0
3.0134e-08 -6.0483e-09 0
1.2259e-08 -1.1706e-09 0
6.4998e-09 2.0233e-10 0
9.9675e-09 -3.6906e-10 0
3.4091e-10 -1.5693e-09 0
-1.276e-09 -2.3018e-09 0
1.6105e-10 -6.2729e-10 0
-1.3363e-09 7.1009e-10 0
3.2602e-09 1.2981e-09 0
9.7433e-10 3.0654e-10 0
0.00013673 -3.0213e-05 0
0.00013879 -2.9677e-05 0
0.00014188 -3.1146e-05 0
0.00013135 -2.9178e-05 0
0.00013347 -2.8726e-05 0
0.00012597 -2.8169e-05 0
0.00012822 -2.7972e-05 0
0.00012072 -2.7411e-05 0
0.00012281 -2.702e-05 0
0.00011515 -2.6609e-05 0
0.00011741 -2.5928e-05 0
0.00010974 -2.5589e-05 0
0.00011202 -2.5152e-05 0
0.00010436 -2.4742e-05 0
0.00010649 -2.4271e-05 0
9.8751e-05 -2.3709e-05 0
0.00010106 -2.3331e-05 0
9.3322e-05 -2.2825e-05 0
9.5455e-05 -2.2354e-05 0
8.7613e-05 -2.1615e-05 0
8.9876e-05 -2.1316e-05 0
8.2012e-05 -2.0412e-05 0
8.4209e-05 -2.0108e-05 0
7.6242e-05 -1.9038e-05 0
7.844e-05 -1.8822e-05 0
7.0166e-05 -1.7117e-05 0
7.2408e-05 -1.7144e-05 0
6.4285e-05 -1.5002e-05 0
6.6509e-05 -1.518e-05 0
5.7855e-05 -1.3027e-05 0
6.0222e-05 -1.3077e-05 0
5.1481e-05 -1.1049e-05 0
5.3804e-05 -1.1074e-05 0
4.4818e-05 -9.2702e-06 0
4.7335e-05 -9.2714e-06 0
3.8025e-05 -7.5117e-06 0
4.0709e-05 -7.4477e-06 0
3.078e-05 -5.5181e-06 0
3.3305e-05 -5.4504e-06 0
2.3793e-05 -3.5285e-06 0
2.6163e-05 -3.5132e-06 0
1.6382e-05 -1.8965e-06 0
1.9841e-05 -1.9984e-06 0
8.7634e-06 -8.6688e-07 0
1.2101e-05 -1.011e-06 0
3.7694e-06 -3.253e-07 0
5.6257e-06 -4.4361e-07 0
1.3236e-06 -1.065e-07 0
2.2042e-06 -1.6098e-07 0
3.7454e-07 -2.7188e-08 0
6.4266e-07 -5.2287e-08 0
1.0193e-07 -6.8709e-09 0
1.9185e-07 -1.2314e-08 0
1.6197e-08 -2.8019e-09 0
3.231e-08 -4.1826e-09 0
6.761e-09 2.4107e-09 0
1.2155e-08 1.0797e-10 0
-1.3961e-09 -3.2908e-09 0
-6.9286e-10 -6.5819e-10 0
1.9003e-09 4.0554e-09 0
-1.546e-10 2.8998e-10 0
0.00013597 -2.8353e-05 0
0.00013775 -2.7803e-05 0
0.00014089 -2.9289e-05 0
0.00013027 -2.7272e-05 0
0.00013247 -2.6941e-05 0
0.00012488 -2.6401e-05 0
0.00012729 -2.6123e-05 0
0.00011973 -2.5555e-05 0
0.00012176 -2.5188e-05 0
0.00011408 -2.474e-05 0
0.00011641 -2.4078e-05 0
0.00010872 -2.3793e-05 0
0.00011102 -2.3279e-05 0
0.00010334 -2.2871e-05 0
0.00010543 -2.2514e-05 0
9.7623e-05 -2.1918e-05 0
9.9943e-05 -2.1466e-05 0
9.2152e-05 -2.0959e-05 0
9.4346e-05 -2.0547e-05 0
8.6432e-05 -1.982e-05 0
8.8709e-05 -1.9504e-05 0
8.0629e-05 -1.8518e-05 0
8.289e-05 -1.823e-05 0
7.4795e-05 -1.7107e-05 0
7.7056e-05 -1.6924e-05 0
6.8659e-05 -1.5284e-05 0
7.1076e-05 -1.5307e-05 0
6.2651e-05 -1.3167e-05 0
6.4882e-05 -1.3272e-05 0
5.6101e-05 -1.1126e-05 0
5.8571e-05 -1.1241e-05 0
4.9903e-05 -9.2936e-06 0
5.234e-05 -9.335e-06 0
4.3133e-05 -7.4208e-06 0
4.5651e-05 -7.3891e-06 0
3.599e-05 -5.3693e-06 0
3.8645e-05 -5.3381e-06 0
2.8813e-05 -3.4578e-06 0
3.1366e-05 -3.4781e-06 0
2.2517e-05 -2.0174e-06 0
2.5033e-05 -2.1369e-06 0
1.5947e-05 -1.1024e-06 0
1.9542e-05 -1.2502e-06 0
8.7728e-06 -5.3098e-07 0
1.2237e-05 -6.8476e-07 0
3.8763e-06 -2.1002e-07 0
5.8208e-06 -3.1162e-07 0
1.3878e-06 -7.7127e-08 0
2.3075e-06 -1.198e-07 0
4.0241e-07 -1.7712e-08 0
6.8924e-07 -3.8712e-08 0
1.0997e-07 -7.1344e-09 0
2.0437e-07 -9.8523e-09 0
1.8236e-08 -8.2258e-10 0
3.5395e-08 -2.8466e-09 0
7.4755e-09 2.7083e-10 0
1.3747e-08 -2.5573e-10 0
-1.2337e-09 -1.4196e-09 0
-1.2872e-09 -2.4188e-10 0
4.7474e-10 2.0984e-09 0
3.1553e-09 8.9087e-11 0
0.00013491 -2.6449e-05 0
0.00013672 -2.5935e-05 0
0.00014006 -2.749e-05 0
0.00012923 -2.5453e-05 0
0.00013146 -2.5078e-05 0
0.00012393 -2.4508e-05 0
0.00012624 -2.415e-05 0
0.00011873 -2.3734e-05 0
0.00012081 -2.3253e-05 0
0.00011306 -2.298e-05 0
0.00011541 -2.2261e-05 0
0.0001077 -2.1906e-05 0
0.00010987 -2.1549e-05 0
0.00010223 -2.1057e-05 0
0.00010437 -2.0674e-05 0
9.6522e-05 -2.0159e-05 0
9.8919e-05 -1.9693e-05 0
9.1026e-05 -1.9115e-05 0
9.3147e-05 -1.8723e-05 0
8.5138e-05 -1.7943e-05 0
8.7521e-05 -1.7657e-05 0
7.9382e-05 -1.6711e-05 0
8.1705e-05 -1.6436e-05 0
7.3454e-05 -1.5225e-05 0
7.5759e-05 -1.5064e-05 0
6.7149e-05 -1.3349e-05 0
6.9629e-05 -1.3367e-05 0
6.1149e-05 -1.1355e-05 0
6.3474e-05 -1.1463e-05 0
5.4651e-05 -9.4106e-06 0
5.7254e-05 -9.5146e-06 0
4.8206e-05 -7.3928e-06 0
5.0633e-05 -7.3904e-06 0
4.1133e-05 -5.2879e-06 0
4.3639e-05 -5.3077e-06 0
3.4242e-05 -3.4482e-06 0
3.6994e-05 -3.5259e-06 0
2.7803e-05 -2.18e-06 0
3.0508e-05 -2.3059e-06 0
2.2284e-05 -1.3662e-06 0
2.4919e-05 -1.5236e-06 0
1.612e-05 -8.0842e-07 0
1.9793e-05 -9.6105e-07 0
9.026e-06 -4.0185e-07 0
1.256e-05 -5.4134e-07 0
4.0382e-06 -1.6252e-07 0
6.0416e-06 -2.4364e-07 0
1.4599e-06 -5.7077e-08 0
2.4046e-06 -9.381e-08 0
4.2869e-07 -1.4835e-08 0
7.3019e-07 -2.8493e-08 0
1.1675e-07 -4.3011e-09 0
2.1403e-07 -8.1834e-09 0
2.0397e-08 -3.7955e-11 0
3.7865e-08 -1.2359e-09 0
7.4112e-09 -1.5402e-09 0
1.6291e-08 -9.9323e-10 0
-1.0193e-09 2.2306e-09 0
-4.4889e-09 4.5223e-10 0
1.3402e-09 -4.3192e-09 0
1.7484e-09 -2.2354e-10 0
0.00013394 -2.4559e-05 0
0.00013572 -2.4162e-05 0
0.00013898 -2.5542e-05 0
0.00012819 -2.3637e-05 0
0.00013047 -2.3178e-05 0
0.00012283 -2.2756e-05 0
0.00012533 -2.2313e-05 0
0.00011763 -2.2001e-05 0
0.0001198 -2.1394e-05 0
0.00011203 -2.1021e-05 0
0.00011426 -2.0547e-05 0
0.00010669 -2.0155e-05 0
0.00010888 -1.9792e-05 0
0.00010115 -1.9314e-05 0
0.00010337 -1.8864e-05 0
9.5389e-05 -1.8316e-05 0
9.7736e-05 -1.789e-05 0
8.9875e-05 -1.7309e-05 0
9.2075e-05 -1.6964e-05 0
8.4e-05 -1.618e-05 0
8.6462e-05 -1.5895e-05 0
7.8115e-05 -1.4851e-05 0
8.0406e-05 -1.4579e-05 0
7.2087e-05 -1.3295e-05 0
7.4481e-05 -1.32e-05 0
6.5883e-05 -1.1568e-05 0
6.8465e-05 -1.1582e-05 0
5.9806e-05 -9.6096e-06 0
6.2211e-05 -9.6828e-06 0
5.2982e-05 -7.4265e-06 0
5.5586e-05 -7.4878e-06 0
4.6313e-05 -5.2941e-06 0
4.8762e-05 -5.3472e-06 0
3.966e-05 -3.5436e-06 0
4.2297e-05 -3.6789e-06 0
3.3524e-05 -2.3758e-06 0
3.6447e-05 -2.5254e-06 0
2.7729e-05 -1.6463e-06 0
3.0539e-05 -1.8046e-06 0
2.2558e-05 -1.1063e-06 0
2.5245e-05 -1.2601e-06 0
1.647e-05 -6.5909e-07 0
2.0184e-05 -8.0608e-07 0
9.3024e-06 -3.1901e-07 0
1.2891e-05 -4.3693e-07 0
4.1831e-06 -1.2879e-07 0
6.2291e-06 -1.9136e-07 0
1.5218e-06 -3.9933e-08 0
2.4877e-06 -7.0761e-08 0
4.4873e-07 -1.4274e-08 0
7.5807e-07 -2.1041e-08 0
1.2234e-07 -7.0531e-10 0
2.2434e-07 -5.8946e-09 0
2.1921e-08 -1.6779e-09 0
3.721e-08 -8.9627e-10 0
7.7005e-09 -9.8787e-10 0
1.8893e-08 -6.3554e-10 0
-1.2134e-09 3.9497e-09 0
-2.8267e-09 1.9048e-10 0
2.4268e-09 -3.0142e-09 0
1.0366e-09 -6.7734e-11 0
0.00013286 -2.2721e-05 0
0.00013467 -2.2228e-05 0
0.00013808 -2.3649e-05 0
0.00012714 -2.1794e-05 0
0.00012949 -2.135e-05 0
0.00012169 -2.0969e-05 0
0.00012431 -2.0422e-05 0
0.0001167 -2.0101e-05 0
0.00011875 -1.9627e-05 0
0.00011111 -1.9269e-05 0
0.00011327 -1.8833e-05 0
0.00010559 -1.8425e-05 0
0.00010786 -1.7984e-05 0
0.00010004 -1.7487e-05 0
0.00010227 -1.7069e-05 0
9.4368e-05 -1.6593e-05 0
9.6747e-05 -1.6195e-05 0
8.8788e-05 -1.557e-05 0
9.107e-05 -1.525e-05 0
8.2798e-05 -1.4332e-05 0
8.5214e-05 -1.4038e-05 0
7.689e-05 -1.3009e-05 0
7.9275e-05 -1.2816e-05 0
7.1008e-05 -1.1578e-05 0
7.3521e-05 -1.1498e-05 0
6.4615e-05 -9.7561e-06 0
6.722e-05 -9.7305e-06 0
5.8172e-05 -7.5224e-06 0
6.0581e-05 -7.5941e-06 0
5.1298e-05 -5.3793e-06 0
5.3964e-05 -5.4875e-06 0
4.5132e-05 -3.7353e-06 0
4.7735e-05 -3.89e-06 0
3.9238e-05 -2.6344e-06 0
4.2037e-05 -2.8192e-06 0
3.3608e-05 -1.9339e-06 0
3.6637e-05 -2.0958e-06 0
2.8069e-05 -1.4079e-06 0
3.0915e-05 -1.5631e-06 0
2.2964e-05 -9.4487e-07 0
2.5677e-05 -1.0871e-06 0
1.6832e-05 -5.362e-07 0
2.0582e-05 -6.7166e-07 0
9.5437e-06 -2.498e-07 0
1.3183e-05 -3.4379e-07 0
4.301e-06 -9.6758e-08 0
6.3757e-06 -1.4496e-07 0
1.5698e-06 -2.8576e-08 0
2.5572e-06 -5.1118e-08 0
4.6339e-07 -1.0653e-08 0
7.7251e-07 -1.4895e-08 0
1.2664e-07 3.8282e-10 0
2.3633e-07 -3.814e-09 0
2.2694e-08 -1.666e-09 0
3.504e-08 -1.0097e-09 0
7.9317e-09 -5.286e-10 0
1.8769e-08 2.24e-10 0
-6.4049e-10 -9.7727e-10 0
-2.2904e-09 -4.865e-10 0
2.7347e-09 4.1942e-10 0
1.3621e-09 3.3765e-10 0
0.00013191 -2.0839e-05 0
0.0001338 -2.038e-05 0
0.00013698 -2.1817e-05 0
0.00012616 -1.9979e-05 0
0.00012851 -1.9452e-05 0
0.00012075 -1.9157e-05 0
0.00012331 -1.8656e-05 0
0.0001158 -1.8339e-05 0
0.00011774 -1.7882e-05 0
0.00011002 -1.7514e-05 0
0.00011226 -1.7054e-05 0
0.00010452 -1.6643e-05 0
0.00010688 -1.6222e-05 0
9.9124e-05 -1.5824e-05 0
0.00010136 -1.5408e-05 0
9.3324e-05 -1.4881e-05 0
9.5756e-05 -1.4515e-05 0
8.7646e-05 -1.3745e-05 0
8.9924e-05 -1.3443e-05 0
8.1746e-05 -1.2592e-05 0
8.4239e-05 -1.2348e-05 0
7.5932e-05 -1.1369e-05 0
7.8437e-05 -1.1199e-05 0
6.9797e-05 -9.7281e-06 0
7.2302e-05 -9.6208e-06 0
6.3045e-05 -7.6101e-06 0
6.5663e-05 -7.6306e-06 0
5.6737e-05 -5.534e-06 0
5.9244e-05 -5.6734e-06 0
5.0441e-05 -3.9871e-06 0
5.327e-05 -4.1575e-06 0
4.4962e-05 -2.9511e-06 0
4.7711e-05 -3.1431e-06 0
3.9489e-05 -2.2437e-06 0
4.2384e-05 -2.4192e-06 0
3.4003e-05 -1.7054e-06 0
3.7071e-05 -1.8577e-06 0
2.8509e-05 -1.2293e-06 0
3.1372e-05 -1.3712e-06 0
2.3377e-05 -7.9203e-07 0
2.6108e-05 -9.2274e-07 0
1.7159e-05 -4.2187e-07 0
2.0953e-05 -5.3904e-07 0
9.7403e-06 -1.8831e-07 0
1.3418e-05 -2.5981e-07 0
4.3927e-06 -6.8259e-08 0
6.4897e-06 -1.0462e-07 0
1.6049e-06 -2.1014e-08 0
2.608e-06 -3.524e-08 0
4.7366e-07 -5.6954e-09 0
7.8165e-07 -9.7952e-09 0
1.2985e-07 -1.6332e-09 0
2.4454e-07 -2.5065e-09 0
2.3177e-08 3.0879e-10 0
3.4086e-08 -8.201e-10 0
7.7851e-09 1.9205e-09 0
2.1211e-08 4.239e-10 0
-6.9213e-10 -2.9199e-09 0
-5.1531e-09 -5.2073e-10 0
1.2516e-09 2.832e-09 0
2.2668e-09 3.1447e-10 0
0.0001309 -1.898e-05 0
0.0001327 -1.8451e-05 0
0.00013609 -1.9864e-05 0
0.00012519 -1.8177e-05 0
0.00012752 -1.7662e-05 0
0.00011977 -1.7363e-05 0
0.00012234 -1.6885e-05 0
0.00011477 -1.6572e-05 0
0.00011684 -1.6102e-05 0
0.00010905 -1.5783e-05 0
0.00011138 -1.5336e-05 0
0.00010364 -1.5011e-05 0
0.00010599 -1.4576e-05 0
9.814e-05 -1.4127e-05 0
0.00010039 -1.3744e-05 0
9.2273e-05 -1.3116e-05 0
9.4752e-05 -1.2791e-05 0
8.6749e-05 -1.2097e-05 0
8.9101e-05 -1.182e-05 0
8.0874e-05 -1.0998e-05 0
8.3456e-05 -1.0765e-05 0
7.4764e-05 -9.519e-06 0
7.727e-05 -9.3493e-06 0
6.8361e-05 -7.613e-06 0
7.0899e-05 -7.5817e-06 0
6.1872e-05 -5.7123e-06 0
6.4625e-05 -5.8325e-06 0
5.6203e-05 -4.2706e-06 0
5.8867e-05 -4.4482e-06 0
5.0493e-05 -3.2919e-06 0
5.3449e-05 -3.4723e-06 0
4.535e-05 -2.5723e-06 0
4.8174e-05 -2.7495e-06 0
3.9955e-05 -2.0016e-06 0
4.2891e-05 -2.1532e-06 0
3.4467e-05 -1.5064e-06 0
3.7548e-05 -1.6427e-06 0
2.8954e-05 -1.0487e-06 0
3.183e-05 -1.1754e-06 0
2.3764e-05 -6.3588e-07 0
2.6518e-05 -7.5327e-07 0
1.7438e-05 -3.1826e-07 0
2.1275e-05 -4.1203e-07 0
9.8932e-06 -1.3413e-07 0
1.3599e-05 -1.8675e-07 0
4.4606e-06 -4.6139e-08 0
6.5768e-06 -7.1572e-08 0
1.6291e-06 -1.4596e-08 0
2.6385e-06 -2.2804e-08 0
4.8063e-07 -1.9418e-09 0
7.9253e-07 -6.2986e-09 0
1.3185e-07 -2.2572e-09 0
2.4585e-07 -1.3816e-09 0
2.3654e-08 -9.295e-10 0
3.3576e-08 -4.1677e-10 0
8.0213e-09 1.5949e-09 0
2.4588e-08 -6.8174e-11 0
-5.023e-10 -1.1987e-09 0
-7.1895e-09 5.6151e-11 0
9.4652e-10 1.8631e-09 0
4.488e-09 -8.3261e-11 0
0.00013001 -1.7129e-05 0
0.000132 -1.6584e-05 0
0.0001351 -1.7936e-05 0
0.00012429 -1.6324e-05 0
0.00012671 -1.5806e-05 0
0.00011887 -1.5592e-05 0
0.00012153 -1.5078e-05 0
0.00011392 -1.4879e-05 0
0.00011599 -1.4387e-05 0
0.00010821 -1.4152e-05 0
0.00011052 -1.3694e-05 0
0.00010273 -1.3335e-05 0
0.00010512 -1.2938e-05 0
9.7233e-05 -1.2446e-05 0
9.9565e-05 -1.2098e-05 0
9.1498e-05 -1.1537e-05 0
9.405e-05 -1.1226e-05 0
8.5939e-05 -1.0516e-05 0
8.8346e-05 -1.0245e-05 0
7.9779e-05 -9.1788e-06 0
8.2382e-05 -8.9721e-06 0
7.3531e-05 -7.5162e-06 0
7.611e-05 -7.4449e-06 0
6.7484e-05 -5.8571e-06 0
7.0181e-05 -5.9386e-06 0
6.1623e-05 -4.5494e-06 0
6.453e-05 -4.7052e-06 0
5.645e-05 -3.6216e-06 0
5.9213e-05 -3.7832e-06 0
5.0981e-05 -2.8994e-06 0
5.3994e-05 -3.0576e-06 0
4.5884e-05 -2.2908e-06 0
4.8742e-05 -2.4384e-06 0
4.045e-05 -1.7703e-06 0
4.34e-05 -1.8971e-06 0
3.493e-05 -1.2963e-06 0
3.8019e-05 -1.4146e-06 0
2.9379e-05 -8.5712e-07 0
3.227e-05 -9.6892e-07 0
2.4107e-05 -4.8391e-07 0
2.6893e-05 -5.8374e-07 0
1.7662e-05 -2.2813e-07 0
2.1531e-05 -2.974e-07 0
1.0007e-05 -8.9722e-08 0
1.3736e-05 -1.2689e-07 0
4.508e-06 -2.9374e-08 0
6.6368e-06 -4.5926e-08 0
1.6449e-06 -9.8037e-09 0
2.6556e-06 -1.3719e-08 0
4.8531e-07 -9.7186e-10 0
8.0305e-07 -4.1407e-09 0
1.3279e-07 3.3932e-10 0
2.4446e-07 -5.3259e-10 0
2.3822e-08 -1.0155e-09 0
3.4653e-08 -1.34e-10 0
8.1086e-09 -2.2187e-10 0
2.3631e-08 -2.6383e-10 0
-6.6581e-10 -3.8913e-10 0
-7.4974e-09 3.3243e-10 0
1.5432e-09 -1.3628e-09 0
2.9442e-09 -2.5072e-10 0
0.00012924 -1.5214e-05 0
0.00013111 -1.4626e-05 0
0.00013442 -1.5982e-05 0
0.00012347 -1.4552e-05 0
0.00012588 -1.3958e-05 0
0.00011807 -1.3906e-05 0
0.00012071 -1.3367e-05 0
0.00011311 -1.3235e-05 0
0.00011521 -1.2758e-05 0
0.0001074 -1.2508e-05 0
0.0001098 -1.2094e-05 0
0.00010198 -1.1732e-05 0
0.00010446 -1.1356e-05 0
9.6556e-05 -1.0911e-05 0
9.895e-05 -1.057e-05 0
9.0743e-05 -9.9605e-06 0
9.3343e-05 -9.669e-06 0
8.498e-05 -8.7636e-06 0
8.7445e-05 -8.5428e-06 0
7.8818e-05 -7.3431e-06 0
8.1548e-05 -7.2445e-06 0
7.2973e-05 -5.9364e-06 0
7.5727e-05 -5.9741e-06 0
6.7489e-05 -4.7823e-06 0
7.0326e-05 -4.8961e-06 0
6.2022e-05 -3.9094e-06 0
6.5001e-05 -4.0377e-06 0
5.7015e-05 -3.1933e-06 0
5.9814e-05 -3.3218e-06 0
5.1563e-05 -2.5613e-06 0
5.46e-05 -2.6892e-06 0
4.6414e-05 -2.0115e-06 0
4.9286e-05 -2.1274e-06 0
4.0929e-05 -1.5241e-06 0
4.3886e-05 -1.6281e-06 0
3.5376e-05 -1.0705e-06 0
3.8473e-05 -1.171e-06 0
2.9766e-05 -6.6189e-07 0
3.2679e-05 -7.5752e-07 0
2.4393e-05 -3.4643e-07 0
2.7211e-05 -4.2473e-07 0
1.783e-05 -1.5375e-07 0
2.1721e-05 -2.0117e-07 0
1.0086e-05 -5.6242e-08 0
1.3834e-05 -8.0857e-08 0
4.5388e-06 -1.7372e-08 0
6.6731e-06 -2.7397e-08 0
1.6547e-06 -5.4689e-09 0
2.6674e-06 -7.7895e-09 0
4.8833e-07 -1.9643e-09 0
8.0752e-07 -2.3372e-09 0
1.3334e-07 4.9505e-10 0
2.4447e-07 -3.727e-10 0
2.3944e-08 5.9403e-10 0
3.7657e-08 -6.8365e-11 0
8.1051e-09 1.1057e-10 0
2.0771e-08 -8.4561e-11 0
-9.2239e-10 1.3994e-09 0
-4.2004e-09 1.2256e-10 0
1.5946e-09 3.4908e-10 0
2.2314e-09 -7.7997e-11 0
0.00012833 -1.3371e-05 0
0.00013028 -1.269e-05 0
0.00013346 -1.4067e-05 0
0.00012268 -1.2808e-05 0
0.00012513 -1.2218e-05 0
0.00011734 -1.2239e-05 0
0.00012008 -1.1728e-05 0
0.00011246 -1.1631e-05 0
0.00011467 -1.1178e-05 0
0.00010681 -1.0966e-05 0
0.00010929 -1.0555e-05 0
0.0001014 -1.0225e-05 0
0.00010395 -9.8639e-06 0
9.5911e-05 -9.3628e-06 0
9.839e-05 -9.0617e-06 0
9.0012e-05 -8.3165e-06 0
9.2732e-05 -8.0884e-06 0
8.4358e-05 -7.119e-06 0
8.6995e-05 -6.9978e-06 0
7.8587e-05 -5.9395e-06 0
8.1496e-05 -5.9307e-06 0
7.3196e-05 -4.9362e-06 0
7.6067e-05 -4.9965e-06 0
6.7996e-05 -4.1266e-06 0
7.0882e-05 -4.2078e-06 0
6.2634e-05 -3.4273e-06 0
6.563e-05 -3.5161e-06 0
5.7624e-05 -2.7886e-06 0
6.0437e-05 -2.8853e-06 0
5.2118e-05 -2.2213e-06 0
5.5163e-05 -2.3161e-06 0
4.6911e-05 -1.7211e-06 0
4.9784e-05 -1.8079e-06 0
4.1387e-05 -1.2606e-06 0
4.4346e-05 -1.3447e-06 0
3.5791e-05 -8.3457e-07 0
3.8899e-05 -9.1818e-07 0
3.01e-05 -4.7712e-07 0
3.3038e-05 -5.5401e-07 0
2.4616e-05 -2.3209e-07 0
2.7456e-05 -2.8733e-07 0
1.7949e-05 -9.5781e-08 0
2.1856e-05 -1.2669e-07 0
1.0139e-05 -3.3173e-08 0
1.3896e-05 -4.767e-08 0
4.5576e-06 -1.0273e-08 0
6.6946e-06 -1.5329e-08 0
1.6603e-06 -1.3127e-09 0
2.6764e-06 -4.2173e-09 0
4.8991e-07 -1.6567e-09 0
8.0688e-07 -8.7803e-10 0
1.3376e-07 -7.376e-10 0
2.4536e-07 -4.4288e-10 0
2.4116e-08 2.4661e-10 0
3.8898e-08 4.8047e-11 0
8.2728e-09 -1.2797e-09 0
1.8824e-08 -4.3829e-11 0
-6.2175e-10 1.1628e-10 0
-2.0966e-09 -1.0969e-10 0
1.6191e-09 -1.3699e-10 0
1.7281e-09 1.4426e-11 0
0.00012781 -1.1519e-05 0
0.00013004 -1.0714e-05 0
0.00013289 -1.1829e-05 0
0.00012222 -1.1147e-05 0
0.00012492 -1.0527e-05 0
0.00011694 -1.0689e-05 0
0.00011987 -1.0169e-05 0
0.00011207 -1.0144e-05 0
0.00011444 -9.694e-06 0
0.00010641 -9.4948e-06 0
0.00010905 -9.1155e-06 0
0.00010099 -8.7419e-06 0
0.00010371 -8.4279e-06 0
9.5517e-05 -7.853e-06 0
9.8175e-05 -7.6094e-06 0
8.9769e-05 -6.8499e-06 0
9.2678e-05 -6.6987e-06 0
8.4432e-05 -5.858e-06 0
8.7224e-05 -5.7985e-06 0
7.898e-05 -4.9891e-06 0
8.1969e-05 -4.9878e-06 0
7.377e-05 -4.2485e-06 0
7.6662e-05 -4.2727e-06 0
6.8626e-05 -3.5791e-06 0
7.1512e-05 -3.6187e-06 0
6.325e-05 -2.9506e-06 0
6.6249e-05 -3.0074e-06 0
5.819e-05 -2.3818e-06 0
6.1004e-05 -2.4465e-06 0
5.2624e-05 -1.8782e-06 0
5.5666e-05 -1.9416e-06 0
4.7373e-05 -1.4168e-06 0
5.0245e-05 -1.4801e-06 0
4.1814e-05 -9.8455e-07 0
4.4778e-05 -1.051e-06 0
3.6157e-05 -6.0393e-07 0
3.9281e-05 -6.7091e-07 0
3.0367e-05 -3.1861e-07 0
3.3323e-05 -3.7415e-07 0
2.4775e-05 -1.4411e-07 0
2.763e-05 -1.7929e-07 0
1.8027e-05 -5.4288e-08 0
2.1944e-05 -7.3636e-08 0
1.017e-05 -1.8618e-08 0
1.393e-05 -2.5778e-08 0
4.5683e-06 -5.909e-09 0
6.7079e-06 -8.0481e-09 0
1.6634e-06 -9.758e-12 0
2.681e-06 -2.136e-09 0
4.9051e-07 -5.1278e-10 0
8.0685e-07 -2.7229e-10 0
1.339e-07 1.7546e-10 0
2.4614e-07 -2.7136e-10 0
2.409e-08 4.0975e-10 0
3.7972e-08 1.3726e-10 0
8.1514e-09 -5.3063e-10 0
1.9202e-08 -4.6316e-11 0
-7.4851e-10 -7.0125e-11 0
-3.4328e-09 5.602e-12 0
1.4567e-09 -7.0354e-10 0
1.5653e-09 4.5806e-11 0
0.00012791 -9.8122e-06 0
0.00013044 -8.9593e-06 0
0.000133 -9.6454e-06 0
0.00012226 -9.6068e-06 0
0.00012524 -8.9526e-06 0
0.00011693 -9.2287e-06 0
0.0001201 -8.6958e-06 0
0.00011203 -8.7023e-06 0
0.00011462 -8.2694e-06 0
0.00010638 -8.0807e-06 0
0.00010921 -7.722e-06 0
0.00010099 -7.3507e-06 0
0.00010388 -7.0634e-06 0
9.562e-05 -6.5142e-06 0
9.843e-05 -6.3132e-06 0
9.0075e-05 -5.6747e-06 0
9.3082e-05 -5.553e-06 0
8.493e-05 -4.9233e-06 0
8.7752e-05 -4.8528e-06 0
7.9578e-05 -4.2564e-06 0
8.2557e-05 -4.2158e-06 0
7.4391e-05 -3.6298e-06 0
7.7269e-05 -3.614e-06 0
6.9229e-05 -3.0292e-06 0
7.2107e-05 -3.0394e-06 0
6.3809e-05 -2.4771e-06 0
6.68e-05 -2.5046e-06 0
5.8694e-05 -1.9833e-06 0
6.1497e-05 -2.0171e-06 0
5.3085e-05 -1.5293e-06 0
5.612e-05 -1.5676e-06 0
4.7803e-05 -1.1006e-06 0
5.0674e-05 -1.1453e-06 0
4.2195e-05 -7.1103e-07 0
4.5169e-05 -7.6231e-07 0
3.6454e-05 -4.0079e-07 0
3.9591e-05 -4.497e-07 0
3.0561e-05 -1.9565e-07 0
3.3528e-05 -2.3088e-07 0
2.488e-05 -8.1349e-08 0
2.7744e-05 -1.0236e-07 0
1.8074e-05 -2.8761e-08 0
2.1996e-05 -3.9157e-08 0
1.0188e-05 -9.3591e-09 0
1.3949e-05 -1.2863e-08 0
4.574e-06 -2.4928e-09 0
6.7151e-06 -3.7512e-09 0
1.6651e-06 -1.0109e-09 0
2.6817e-06 -1.0411e-09 0
4.9085e-07 4.885e-11 0
8.0858e-07 -1.8042e-10 0
1.3398e-07 1.7734e-10 0
2.4622e-07 -2.3266e-11 0
2.4105e-08 -1.3844e-10 0
3.7276e-08 -4.9277e-11 0
8.0785e-09 9.614e-10 0
2.1383e-08 8.2169e-12 0
-7.7606e-10 6.8331e-10 0
-4.8942e-09 7.2621e-11 0
1.6908e-09 7.8403e-12 0
2.5416e-09 3.1406e-11 0
0.00012835 -8.1987e-06 0
0.00013085 -7.4268e-06 0
0.00013343 -8.0343e-06 0
0.00012265 -8.0846e-06 0
0.00012565 -7.4308e-06 0
0.00011726 -7.7562e-06 0
0.0001205 -7.2243e-06 0
0.00011234 -7.3101e-06 0
0.00011499 -6.8662e-06 0
0.00010667 -6.7491e-06 0
0.00010957 -6.3876e-06 0
0.00010132 -6.0667e-06 0
0.00010426 -5.7974e-06 0
9.6045e-05 -5.3638e-06 0
9.8869e-05 -5.1709e-06 0
9.06e-05 -4.7242e-06 0
9.3581e-05 -4.5807e-06 0
8.5504e-05 -4.1373e-06 0
8.8293e-05 -4.0292e-06 0
8.0162e-05 -3.5669e-06 0
8.3118e-05 -3.4934e-06 0
7.4961e-05 -3.0115e-06 0
7.7822e-05 -2.9725e-06 0
6.9763e-05 -2.4948e-06 0
7.2623e-05 -2.4809e-06 0
6.4297e-05 -2.0258e-06 0
6.7269e-05 -2.0255e-06 0
5.9143e-05 -1.5892e-06 0
6.1934e-05 -1.5985e-06 0
5.3508e-05 -1.1726e-06 0
5.6536e-05 -1.1924e-06 0
4.8187e-05 -7.8673e-07 0
5.106e-05 -8.1799e-07 0
4.2508e-05 -4.6668e-07 0
4.5489e-05 -5.0336e-07 0
3.6672e-05 -2.4228e-07 0
3.9816e-05 -2.7292e-07 0
3.0689e-05 -1.0852e-07 0
3.3661e-05 -1.2907e-07 0
2.4942e-05 -4.1685e-08 0
2.781e-05 -5.2995e-08 0
1.81e-05 -1.4803e-08 0
2.2023e-05 -1.8994e-08 0
1.0197e-05 -3.5397e-09 0
1.3959e-05 -5.9274e-09 0
4.5767e-06 -8.6827e-10 0
6.7177e-06 -1.4865e-09 0
1.6658e-06 -1.0815e-09 0
2.6817e-06 -5.0809e-10 0
4.9105e-07 6.5682e-10 0
8.097e-07 -8.2505e-11 0
1.3406e-07 -5.3381e-10 0
2.4559e-07 7.582e-11 0
2.421e-08 -7.0991e-10 0
3.6971e-08 -1.513e-10 0
8.2001e-09 7.4629e-11 0
2.216e-08 6.366e-11 0
-6.9274e-10 -6.0055e-10 0
-5.2925e-09 -1.0229e-10 0
1.8251e-09 -1.4146e-10 0
2.5821e-09 8.2582e-12 0
0.00012868 -6.758e-06 0
0.00013103 -6.1246e-06 0
0.0001337 -6.6804e-06 0
0.000123 -6.6459e-06 0
0.0001259 -6.0784e-06 0
0.00011762 -6.3939e-06 0
0.00012078 -5.8919e-06 0
0.00011268 -6.0035e-06 0
0.0001153 -5.5824e-06 0
0.00010703 -5.4773e-06 0
0.00010989 -5.1474e-06 0
0.00010172 -4.9141e-06 0
0.00010461 -4.6545e-06 0
9.6512e-05 -4.3879e-06 0
9.9277e-05 -4.1752e-06 0
9.1106e-05 -3.8866e-06 0
9.4045e-05 -3.7146e-06 0
8.6027e-05 -3.3855e-06 0
8.8786e-05 -3.2567e-06 0
8.0679e-05 -2.8924e-06 0
8.3609e-05 -2.8052e-06 0
7.5452e-05 -2.4287e-06 0
7.8285e-05 -2.3722e-06 0
7.0219e-05 -1.9988e-06 0
7.3054e-05 -1.9617e-06 0
6.4724e-05 -1.5897e-06 0
6.7678e-05 -1.5674e-06 0
5.955e-05 -1.1936e-06 0
6.233e-05 -1.1863e-06 0
5.3883e-05 -8.2193e-07 0
5.6908e-05 -8.3087e-07 0
4.8502e-05 -5.0626e-07 0
5.1376e-05 -5.2712e-07 0
4.2739e-05 -2.759e-07 0
4.572e-05 -2.9797e-07 0
3.6816e-05 -1.3147e-07 0
3.996e-05 -1.4851e-07 0
3.0765e-05 -5.3821e-08 0
3.3738e-05 -6.4877e-08 0
2.4976e-05 -1.9985e-08 0
2.7844e-05 -2.4764e-08 0
1.8112e-05 -6.5563e-09 0
2.2036e-05 -8.346e-09 0
1.0201e-05 -1.2256e-09 0
1.3964e-05 -2.4849e-09 0
4.5778e-06 -6.7528e-10 0
6.7184e-06 -5.7782e-10 0
1.666e-06 -9.7419e-11 0
2.6826e-06 -1.7015e-10 0
4.9113e-07 3.7728e-10 0
8.0944e-07 -4.7804e-11 0
1.3399e-07 -1.3759e-10 0
2.4563e-07 3.2161e-11 0
2.4132e-08 4.3327e-10 0
3.7094e-08 1.5384e-12 0
8.1961e-09 -1.6038e-10 0
2.1149e-08 7.5073e-11 0
-7.5799e-10 -4.2966e-10 0
-4.7556e-09 -8.7334e-11 0
1.5242e-09 6.9547e-10 0
2.404e-09 3.4633e-11 0
0.0001288 -5.5104e-06 0
0.00013107 -4.9762e-06 0
0.00013377 -5.5349e-06 0
0.00012317 -5.3838e-06 0
0.00012599 -4.8793e-06 0
0.00011784 -5.133e-06 0
0.00012092 -4.6904e-06 0
0.00011294 -4.7632e-06 0
0.00011547 -4.3912e-06 0
0.00010733 -4.3406e-06 0
0.00011011 -4.0244e-06 0
0.00010208 -3.9228e-06 0
0.00010491 -3.6514e-06 0
9.6927e-05 -3.5093e-06 0
9.9647e-05 -3.2849e-06 0
9.1552e-05 -3.0906e-06 0
9.4453e-05 -2.9163e-06 0
8.6477e-05 -2.6765e-06 0
8.9198e-05 -2.5472e-06 0
8.1113e-05 -2.28e-06 0
8.4006e-05 -2.1836e-06 0
7.5865e-05 -1.8997e-06 0
7.8667e-05 -1.8261e-06 0
7.0614e-05 -1.5265e-06 0
7.3428e-05 -1.4721e-06 0
6.5105e-05 -1.159e-06 0
6.8046e-05 -1.1241e-06 0
5.9905e-05 -8.1138e-07 0
6.2678e-05 -7.9759e-07 0
5.4187e-05 -5.1305e-07 0
5.7207e-05 -5.1664e-07 0
4.8731e-05 -2.9013e-07 0
5.1599e-05 -3.0122e-07 0
4.2889e-05 -1.4503e-07 0
4.5865e-05 -1.5646e-07 0
3.6899e-05 -6.3083e-08 0
4.0042e-05 -7.1925e-08 0
3.0804e-05 -2.4663e-08 0
3.3777e-05 -2.9182e-08 0
2.4992e-05 -8.4475e-09 0
2.786e-05 -1.0433e-08 0
1.8118e-05 -2.1054e-09 0
2.2042e-05 -3.2531e-09 0
1.0203e-05 -1.0744e-09 0
1.3965e-05 -9.7102e-10 0
4.5783e-06 -8.9393e-11 0
6.7191e-06 -2.4223e-10 0
1.6662e-06 2.4226e-10 0
2.6832e-06 2.9407e-11 0
4.9119e-07 -5.9913e-10 0
8.0865e-07 -1.0044e-10 0
1.3399e-07 2.7222e-10 0
2.4636e-07 -1.0581e-11 0
2.4084e-08 4.2961e-10 0
3.7535e-08 6.5393e-11 0
8.1593e-09 -1.2536e-10 0
2.0357e-08 -3.4816e-11 0
-7.2498e-10 2.2811e-10 0
-3.999e-09 6.4039e-11 0
1.4009e-09 3.3753e-10 0
2.3407e-09 -3.5671e-11 0
0.00012883 -4.3858e-06 0
0.00013105 -3.9292e-06 0
0.00013377 -4.4614e-06 0
0.00012325 -4.23e-06 0
0.000126 -3.8087e-06 0
0.00011796 -3.9925e-06 0
0.00012097 -3.6086e-06 0
0.0001131 -3.6839e-06 0
0.00011557 -3.341e-06 0
0.00010756 -3.356e-06 0
0.00011029 -3.057e-06 0
0.00010239 -3.0312e-06 0
0.00010518 -2.7802e-06 0
9.7281e-05 -2.7064e-06 0
9.9958e-05 -2.5034e-06 0
9.192e-05 -2.3814e-06 0
9.4777e-05 -2.2188e-06 0
8.6843e-05 -2.0574e-06 0
8.9524e-05 -1.9252e-06 0
8.1473e-05 -1.7309e-06 0
8.4333e-05 -1.623e-06 0
7.6219e-05 -1.399e-06 0
7.8999e-05 -1.3142e-06 0
7.0962e-05 -1.0674e-06 0
7.3759e-05 -1.0072e-06 0
6.5431e-05 -7.5373e-07 0
6.836e-05 -7.1936e-07 0
6.0186e-05 -4.8477e-07 0
6.2947e-05 -4.7216e-07 0
5.4403e-05 -2.8173e-07 0
5.741e-05 -2.8146e-07 0
4.8876e-05 -1.4623e-07 0
5.1735e-05 -1.5098e-07 0
4.2973e-05 -6.6716e-08 0
4.5945e-05 -7.2386e-08 0
3.6942e-05 -2.7481e-08 0
4.0082e-05 -3.0871e-08 0
3.0823e-05 -1.0262e-08 0
3.3794e-05 -1.1719e-08 0
2.4999e-05 -2.6836e-09 0
2.7867e-05 -3.9362e-09 0
1.8121e-05 -9.4877e-10 0
2.2044e-05 -1.1435e-09 0
1.0204e-05 -6.1989e-10 0
1.3966e-05 -3.4965e-10 0
4.5785e-06 4.4893e-10 0
6.7198e-06 -8.2294e-11 0
1.6662e-06 -1.0751e-10 0
2.6829e-06 3.9071e-11 0
4.9118e-07 -3.8997e-10 0
8.0851e-07 -4.8325e-11 0
1.3408e-07 2.763e-10 0
2.465e-07 2.9271e-13 0
2.4136e-08 -4.0532e-10 0
3.7484e-08 6.3205e-12 0
8.1575e-09 -6.1438e-11 0
2.0449e-08 -7.6743e-11 0
-6.9896e-10 1.8549e-10 0
-3.9793e-09 9.3256e-11 0
1.5762e-09 -7.2534e-10 0
2.1138e-09 -7.4448e-11 0
0.0001288 -3.3908e-06 0
0.00013099 -2.9979e-06 0
0.00013371 -3.4895e-06 0
0.00012326 -3.2322e-06 0
0.00012597 -2.8584e-06 0
0.000118 -2.9932e-06 0
0.00012098 -2.6576e-06 0
0.00011323 -2.7372e-06 0
0.00011566 -2.4419e-06 0
0.00010777 -2.5001e-06 0
0.00011046 -2.2428e-06 0
0.00010266 -2.269e-06 0
0.00010539 -2.0475e-06 0
9.7566e-05 -2.0279e-06 0
0.0001002 -1.8377e-06 0
9.2216e-05 -1.7709e-06 0
9.5034e-05 -1.6079e-06 0
8.7146e-05 -1.4972e-06 0
8.9798e-05 -1.3604e-06 0
8.1781e-05 -1.2108e-06 0
8.462e-05 -1.1014e-06 0
7.6525e-05 -9.2317e-07 0
7.9286e-05 -8.4326e-07 0
7.1249e-05 -6.5347e-07 0
7.4029e-05 -6.0335e-07 0
6.5679e-05 -4.2465e-07 0
6.8588e-05 -3.9914e-07 0
6.0377e-05 -2.5173e-07 0
6.3121e-05 -2.4179e-07 0
5.4534e-05 -1.3442e-07 0
5.7528e-05 -1.3304e-07 0
4.8955e-05 -6.3773e-08 0
5.1807e-05 -6.6044e-08 0
4.3015e-05 -2.751e-08 0
4.5981e-05 -2.9427e-08 0
3.6961e-05 -1.078e-08 0
4.0099e-05 -1.1731e-08 0
3.0831e-05 -3.2528e-09 0
3.3801e-05 -4.1653e-09 0
2.5002e-05 -1.1023e-09 0
2.7869e-05 -1.336e-09 0
1.8121e-05 -5.659e-10 0
2.2045e-05 -3.8603e-10 0
1.0204e-05 1.7432e-10 0
1.3967e-05 -7.2311e-11 0
4.5786e-06 -5.5923e-11 0
6.7195e-06 -5.1975e-11 0
1.6662e-06 -1.2634e-10 0
2.6827e-06 -1.6686e-11 0
4.9114e-07 3.246e-10 0
8.0913e-07 5.4168e-11 0
1.3406e-07 -4.1814e-11 0
2.4595e-07 -1.9487e-11 0
2.413e-08 -2.2195e-10 0
3.7276e-08 -7.5091e-12 0
8.148e-09 2.8063e-10 0
2.1013e-08 1.4341e-11 0
-7.2943e-10 1.282e-10 0
-4.4693e-09 2.2931e-13 0
1.6964e-09 -3.0913e-10 0
2.1736e-09 1.8586e-11 0
0.00012875 -2.4923e-06 0
0.00013091 -2.1555e-06 0
0.00013363 -2.6117e-06 0
0.00012323 -2.3104e-06 0
0.00012592 -2.0077e-06 0
0.00011805 -2.1233e-06 0
0.00012098 -1.8461e-06 0
0.00011335 -1.963e-06 0
0.00011574 -1.7064e-06 0
0.00010795 -1.8069e-06 0
0.00011059 -1.5727e-06 0
0.00010286 -1.6317e-06 0
0.00010556 -1.4222e-06 0
9.7797e-05 -1.4312e-06 0
0.0001004 -1.2483e-06 0
9.2463e-05 -1.2085e-06 0
9.5257e-05 -1.0547e-06 0
8.7404e-05 -9.7261e-07 0
9.0034e-05 -8.5022e-07 0
8.2038e-05 -7.3759e-07 0
8.4855e-05 -6.4821e-07 0
7.6765e-05 -5.214e-07 0
7.9502e-05 -4.6351e-07 0
7.1454e-05 -3.4125e-07 0
7.4209e-05 -3.0828e-07 0
6.5837e-05 -2.0554e-07 0
6.8725e-05 -1.892e-07 0
6.0487e-05 -1.1229e-07 0
6.3215e-05 -1.0636e-07 0
5.4601e-05 -5.5098e-08 0
5.7586e-05 -5.4413e-08 0
4.8992e-05 -2.4885e-08 0
5.1837e-05 -2.5198e-08 0
4.3033e-05 -1.0189e-08 0
4.5996e-05 -1.053e-08 0
3.6969e-05 -3.1656e-09 0
4.0106e-05 -3.9441e-09 0
3.0834e-05 -1.0716e-09 0
3.3804e-05 -1.317e-09 0
2.5003e-05 -6.8863e-10 0
2.787e-05 -4.1953e-10 0
1.8122e-05 1.8735e-10 0
2.2045e-05 -1.0258e-10 0
1.0204e-05 7.4822e-11 0
1.3967e-05 6.9418e-12 0
4.5786e-06 -4.4152e-10 0
6.7191e-06 -4.4878e-11 0
1.6662e-06 2.3026e-10 0
2.683e-06 -1.5989e-11 0
4.9116e-07 1.6497e-10 0
8.0933e-07 4.9349e-11 0
1.3401e-07 -3.0593e-10 0
2.4562e-07 -4.1757e-11 0
2.4137e-08 2.5122e-10 0
3.7409e-08 8.8377e-12 0
8.1732e-09 7.4124e-12 0
2.1237e-08 4.8477e-11 0
-7.4033e-10 -1.7188e-10 0
-4.7541e-09 -8.317e-11 0
1.6431e-09 3.4148e-10 0
2.4238e-09 5.9559e-11 0
0.00012867 -1.7044e-06 0
0.00013082 -1.4255e-06 0
0.00013353 -1.8309e-06 0
0.00012321 -1.5628e-06 0
0.00012587 -1.2962e-06 0
0.00011809 -1.4451e-06 0
0.000121 -1.1903e-06 0
0.00011346 -1.3337e-06 0
0.00011582 -1.0967e-06 0
0.00010809 -1.2057e-06 0
0.00011072 -9.9266e-07 0
0.00010304 -1.0548e-06 0
0.00010571 -8.7014e-07 0
9.7988e-05 -8.8513e-07 0
0.00010057 -7.3217e-07 0
9.2666e-05 -7.0672e-07 0
9.5435e-05 -5.8741e-07 0
8.7605e-05 -5.3255e-07 0
9.0207e-05 -4.4673e-07 0
8.2224e-05 -3.7624e-07 0
8.5011e-05 -3.2002e-07 0
7.6921e-05 -2.4811e-07 0
7.9632e-05 -2.1438e-07 0
7.1574e-05 -1.5142e-07 0
7.4307e-05 -1.3334e-07 0
6.5921e-05 -8.4177e-08 0
6.8793e-05 -7.6485e-08 0
6.054e-05 -4.2604e-08 0
6.3257e-05 -4.021e-08 0
5.4631e-05 -2.0193e-08 0
5.7609e-05 -1.9277e-08 0
4.9007e-05 -8.6365e-09 0
5.1849e-05 -8.3974e-09 0
4.3039e-05 -2.8815e-09 0
4.6002e-05 -3.308e-09 0
3.6972e-05 -1.0795e-09 0
4.0107e-05 -1.1832e-09 0
3.0835e-05 -6.3082e-10 0
3.3804e-05 -3.9266e-10 0
2.5003e-05 1.1058e-10 0
2.787e-05 -1.08e-10 0
1.8122e-05 1.6628e-10 0
2.2045e-05 -2.7284e-11 0
1.0204e-05 -2.3649e-10 0
1.3966e-05 -1.0484e-11 0
4.5786e-06 3.4749e-11 0
6.7195e-06 1.3845e-11 0
1.6663e-06 1.4699e-10 0
2.6831e-06 -2.7173e-12 0
4.9118e-07 -2.0906e-10 0
8.0893e-07 -1.048e-11 0
1.3401e-07 -2.3914e-11 0
2.4598e-07 5.2525e-12 0
2.4157e-08 2.1735e-10 0
3.7474e-08 -3.6497e-12 0
8.1775e-09 -2.4548e-10 0
2.0886e-08 4.4026e-12 0
-7.3892e-10 -1.6919e-10 0
-4.5457e-09 -2.9742e-11 0
1.5533e-09 3.15e-10 0
2.45e-09 6.5264e-12 0
0.0001286 -1.0251e-06 0
0.00013073 -7.8523e-07 0
0.00013342 -1.1473e-06 0
0.00012321 -9.3091e-07 0
0.00012585 -7.039e-07 0
0.00011815 -8.5395e-07 0
0.00012104 -6.4491e-07 0
0.00011355 -7.7151e-07 0
0.00011589 -5.8646e-07 0
0.00010821 -6.7389e-07 0
0.00011081 -5.1696e-07 0
0.00010317 -5.6368e-07 0
0.00010582 -4.3692e-07 0
9.8133e-05 -4.4891e-07 0
0.00010068 -3.5233e-07 0
9.2808e-05 -3.3876e-07 0
9.5546e-05 -2.6985e-07 0
8.7733e-05 -2.4123e-07 0
9.0306e-05 -1.9508e-07 0
8.2331e-05 -1.6115e-07 0
8.5093e-05 -1.3222e-07 0
7.7004e-05 -9.9685e-08 0
7.9694e-05 -8.3548e-08 0
7.1632e-05 -5.6383e-08 0
7.4352e-05 -4.8965e-08 0
6.5958e-05 -2.9528e-08 0
6.8821e-05 -2.6471e-08 0
6.0561e-05 -1.4571e-08 0
6.3273e-05 -1.314e-08 0
5.4642e-05 -6.231e-09 0
5.7618e-05 -5.9598e-09 0
4.9012e-05 -2.0461e-09 0
5.1853e-05 -2.4471e-09 0
4.3042e-05 -9.368e-10 0
4.6003e-05 -9.087e-10 0
3.6972e-05 -6.3283e-10 0
4.0108e-05 -3.1572e-10 0
3.0835e-05 5.9863e-11 0
3.3805e-05 -9.0618e-11 0
2.5004e-05 8.7945e-11 0
2.7871e-05 -1.9461e-11 0
1.8122e-05 -3.015e-10 0
2.2045e-05 -3.4903e-11 0
1.0204e-05 9.6974e-11 0
1.3966e-05 -1.134e-11 0
4.5786e-06 2.6797e-10 0
6.7197e-06 3.3825e-11 0
1.6662e-06 -2.2211e-10 0
2.6827e-06 -1.4772e-11 0
4.9117e-07 -2.2136e-11 0
8.0885e-07 -1.5366e-11 0
1.3404e-07 2.0502e-10 0
2.4636e-07 4.6223e-11 0
2.4128e-08 -1.5238e-10 0
3.7273e-08 -2.7478e-11 0
8.156e-09 1.8761e-13 0
2.0671e-08 -2.5482e-11 0
-7.2378e-10 1.2804e-10 0
-4.1883e-09 5.8557e-11 0
1.5385e-09 -8.7132e-11 0
2.2462e-09 -3.6241e-11 0
0.00012856 -4.8089e-07 0
0.00013067 -3.4042e-07 0
0.00013332 -5.5406e-07 0
0.00012322 -4.3821e-07 0
0.00012584 -3.0474e-07 0
0.0001182 -4.014e-07 0
0.00012107 -2.811e-07 0
0.00011362 -3.5617e-07 0
0.00011593 -2.5361e-07 0
0.00010829 -3.023e-07 0
0.00011086 -2.1921e-07 0
0.00010326 -2.4438e-07 0
0.00010588 -1.804e-07 0
9.8217e-05 -1.8738e-07 0
0.00010074 -1.406e-07 0
9.2884e-05 -1.3549e-07 0
9.5599e-05 -1.0321e-07 0
8.7798e-05 -9.1509e-08 0
9.0351e-05 -7.1119e-08 0
8.2381e-05 -5.7093e-08 0
8.5128e-05 -4.5877e-08 0
7.7039e-05 -3.3083e-08 0
7.9719e-05 -2.7572e-08 0
7.1655e-05 -1.8335e-08 0
7.4367e-05 -1.5358e-08 0
6.5972e-05 -9.5568e-09 0
6.883e-05 -7.9033e-09 0
6.0569e-05 -4.1106e-09 0
6.3278e-05 -3.7443e-09 0
5.4646e-05 -1.4312e-09 0
5.762e-05 -1.6233e-09 0
4.9014e-05 -7.769e-10 0
5.1854e-05 -6.4646e-10 0
4.3042e-05 -3.7504e-10 0
4.6004e-05 -2.3498e-10 0
3.6973e-05 2.3036e-10 0
4.0108e-05 -6.2648e-11 0
3.0835e-05 1.2843e-10 0
3.3805e-05 -6.8091e-12 0
2.5004e-05 -2.9593e-10 0
2.787e-05 -7.2272e-12 0
1.8122e-05 -6.1144e-11 0
2.2045e-05 -1.5222e-12 0
1.0204e-05 1.8729e-10 0
1.3967e-05 2.3334e-12 0
4.5786e-06 -1.0704e-10 0
6.7195e-06 -1.015e-11 0
1.6662e-06 -1.0358e-10 0
2.6827e-06 -8.7188e-12 0
4.9118e-07 2.2072e-10 0
8.091e-07 5.4364e-12 0
1.3405e-07 -2.3585e-12 0
2.4612e-07 1.4277e-11 0
2.4104e-08 -2.4004e-10 0
3.7214e-08 -9.981e-12 0
8.1665e-09 1.7273e-10 0
2.0865e-08 -1.4372e-11 0
-7.1123e-10 1.2621e-10 0
-4.2278e-09 3.6592e-11 0
1.5895e-09 -2.6988e-10 0
2.1667e-09 -1.8307e-11 0
0.00012853 -1.8356e-07 0
0.00013064 -1.2223e-07 0
0.00013324 -2.1497e-07 0
0.00012323 -1.6944e-07 0
0.00012584 -1.0992e-07 0
0.00011822 -1.5481e-07 0
0.00012108 -1.0194e-07 0
0.00011365 -1.3545e-07 0
0.00011595 -9.1061e-08 0
0.00010833 -1.1247e-07 0
0.00011089 -7.7074e-08 0
0.0001033 -8.8086e-08 0
0.0001059 -6.1464e-08 0
9.8255e-05 -6.4742e-08 0
0.00010076 -4.6193e-08 0
9.2917e-05 -4.4436e-08 0
9.562e-05 -3.2761e-08 0
8.7824e-05 -2.8558e-08 0
9.0368e-05 -2.1841e-08 0
8.24e-05 -1.7501e-08 0
8.514e-05 -1.3585e-08 0
7.7052e-05 -1.018e-08 0
7.9727e-05 -7.8492e-09 0
7.1663e-05 -5.0944e-09 0
7.4372e-05 -4.1986e-09 0
6.5976e-05 -1.9376e-09 0
6.8834e-05 -2.0566e-09 0
6.0571e-05 -8.5837e-10 0
6.3279e-05 -9.1468e-10 0
5.4647e-05 -7.9721e-10 0
5.7621e-05 -3.8053e-10 0
4.9014e-05 -3.8777e-10 0
5.1854e-05 -1.5569e-10 0
4.3042e-05 1.6524e-10 0
4.6004e-05 -5.7498e-11 0
3.6973e-05 5.3391e-11 0
4.0108e-05 -2.3281e-11 0
3.0835e-05 -1.8793e-10 0
3.3804e-05 -1.9267e-11 0
2.5004e-05 1.2331e-10 0
2.787e-05 4.8848e-12 0
1.8122e-05 2.303e-10 0
2.2045e-05 2.7143e-11 0
1.0204e-05 -1.8377e-10 0
1.3966e-05 -1.4961e-12 0
4.5786e-06 -1.6069e-10 0
6.7194e-06 -1.4315e-11 0
1.6662e-06 1.6145e-10 0
2.6831e-06 1.5809e-11 0
4.9118e-07 -1.0573e-12 0
8.0907e-07 -9.2401e-12 0
1.3402e-07 -1.0413e-10 0
2.4583e-07 -2.8523e-11 0
2.4124e-08 8.2975e-11 0
3.7438e-08 3.0082e-11 0
8.1726e-09 2.4323e-11 0
2.0972e-08 9.4712e-12 0
-7.2409e-10 -6.3296e-11 0
-4.5515e-09 -3.1758e-11 0
1.6302e-09 -1.42e-11 0
2.3434e-09 2.0697e-11 0
0.00012852 -5.7668e-08 0
0.00013063 -3.5196e-08 0
0.00013321 -6.8451e-08 0
0.00012323 -5.3615e-08 0
0.00012584 -3.2049e-08 0
0.00011823 -4.887e-08 0
0.00012108 -2.9884e-08 0
0.00011367 -4.1961e-08 0
0.00011596 -2.6489e-08 0
0.00010835 -3.3721e-08 0
0.0001109 -2.2173e-08 0
0.00010331 -2.5455e-08 0
0.00010591 -1.757e-08 0
9.8269e-05 -1.8173e-08 0
0.00010077 -1.3094e-08 0
9.2928e-05 -1.2443e-08 0
9.5627e-05 -9.0587e-09 0
8.7832e-05 -8.1926e-09 0
9.0373e-05 -5.7966e-09 0
8.2406e-05 -4.8746e-09 0
8.5144e-05 -3.4555e-09 0
7.7055e-05 -2.3399e-09 0
7.9729e-05 -1.9229e-09 0
7.1665e-05 -9.9431e-10 0
7.4374e-05 -9.9247e-10 0
6.5977e-05 -6.8582e-10 0
6.8834e-05 -4.7811e-10 0
6.0571e-05 -4.5734e-10 0
6.328e-05 -2.1343e-10 0
5.4647e-05 8.1325e-11 0
5.7621e-05 -7.5067e-11 0
4.9014e-05 2.7237e-10 0
5.1855e-05 -1.133e-11 0
4.3042e-05 -1.4077e-10 0
4.6004e-05 -5.3038e-12 0
3.6973e-05 -3.4315e-10 0
4.0108e-05 -1.794e-11 0
3.0835e-05 2.9852e-11 0
3.3805e-05 -1.0478e-11 0
2.5004e-05 2.1157e-10 0
2.7871e-05 -4.0451e-13 0
1.8122e-05 -5.0505e-11 0
2.2045e-05 -7.3834e-12 0
1.0204e-05 -6.1027e-11 0
1.3966e-05 -1.1957e-12 0
4.5786e-06 1.6676e-10 0
6.7196e-06 1.9791e-11 0
1.6662e-06 1.1397e-12 0
2.683e-06 1.4341e-11 0
4.9116e-07 -2.3335e-10 0
8.0889e-07 -1.6561e-11 0
1.3403e-07 4.4999e-11 0
2.4604e-07 -1.9689e-11 0
2.415e-08 2.1078e-10 0
3.7536e-08 1.904e-11 0
8.1487e-09 -1.2924e-10 0
2.0843e-08 9.9255e-12 0
-7.3889e-10 -9.2155e-11 0
-4.6107e-09 -3.2978e-11 0
1.619e-09 1.8888e-10 0
2.448e-09 2.1658e-11 0
0.00012852 -1.458e-08 0
0.00013062 -8.9642e-09 0
0.0001332 -1.7293e-08 0
0.00012323 -1.382e-08 0
0.00012584 -8.2342e-09 0
0.00011824 -1.2613e-08 0
0.00012108 -7.8208e-09 0
0.00011367 -1.1005e-08 0
0.00011596 -7.0137e-09 0
0.00010835 -9.213e-09 0
0.0001109 -5.8273e-09 0
0.00010332 -7.2961e-09 0
0.00010592 -4.4244e-09 0
9.8274e-05 -5.3024e-09 0
0.00010077 -3.0996e-09 0
9.2932e-05 -3.2858e-09 0
9.5628e-05 -2.0654e-09 0
8.7835e-05 -1.4952e-09 0
9.0374e-05 -1.3183e-09 0
8.2407e-05 -4.6543e-10 0
8.5144e-05 -7.7464e-10 0
7.7057e-05 -3.8995e-10 0
7.973e-05 -4.0451e-10 0
7.1666e-05 -6.0266e-10 0
7.4374e-05 -1.947e-10 0
6.5978e-05 -3.6687e-10 0
6.8834e-05 -9.5335e-11 0
6.0571e-05 1.0426e-10 0
6.328e-05 -4.9285e-11 0
5.4647e-05 1.5735e-10 0
5.7621e-05 -2.4729e-11 0
4.9014e-05 -1.129e-10 0
5.1854e-05 -9.6311e-12 0
4.3042e-05 -8.1008e-11 0
4.6004e-05 4.4337e-12 0
3.6973e-05 1.8905e-10 0
4.0108e-05 1.7627e-11 0
3.0835e-05 7.6151e-11 0
3.3805e-05 1.0779e-11 0
2.5004e-05 -2.609e-10 0
2.787e-05 -1.5428e-11 0
1.8122e-05 -1.3406e-10 0
2.2045e-05 -1.8485e-11 0
1.0204e-05 2.0691e-10 0
1.3967e-05 4.3428e-12 0
4.5786e-06 1.0919e-10 0
6.7195e-06 2.6864e-12 0
1.6662e-06 -1.0424e-10 0
2.6827e-06 -6.4971e-12 0
4.9117e-07 -1.0703e-11 0
8.0896e-07 1.7308e-11 0
1.3406e-07 4.2818e-11 0
2.4618e-07 1.2844e-11 0
2.4144e-08 -4.7609e-11 0
3.7352e-08 -2.4207e-11 0
8.1496e-09 -4.0101e-11 0
2.0849e-08 -5.7612e-12 0
-7.3368e-10 3.7061e-11 0
-4.3603e-09 1.1666e-11 0
1.5774e-09 6.5466e-11 0
2.2859e-09 -4.3509e-12 0
0.00012852 -3.61e-09 0
0.00013062 -1.874e-09 0
0.00013319 -4.2801e-09 0
0.00012323 -3.5307e-09 0
0.00012584 -1.7769e-09 0
0.00011824 -3.2762e-09 0
0.00012108 -1.6297e-09 0
0.00011367 -2.634e-09 0
0.00011596 -1.3627e-09 0
0.00010836 -1.7488e-09 0
0.0001109 -1.0876e-09 0
0.00010332 -9.3872e-10 0
0.00010592 -8.7607e-10 0
9.8275e-05 -4.4458e-10 0
0.00010077 -6.8625e-10 0
9.2933e-05 -3.886e-10 0
9.5629e-05 -4.7279e-10 0
8.7835e-05 -6.5435e-10 0
9.0374e-05 -2.7666e-10 0
8.2408e-05 -7.7261e-10 0
8.5144e-05 -1.551e-10 0
7.7057e-05 -3.5366e-10 0
7.973e-05 -9.396e-11 0
7.1666e-05 2.7627e-10 0
7.4374e-05 -4.5466e-11 0
6.5978e-05 3.976e-10 0
6.8834e-05 -3.1573e-12 0
6.0571e-05 -5.3949e-11 0
6.328e-05 8.8856e-12 0
5.4647e-05 -3.6091e-10 0
5.7621e-05 -7.3858e-12 0
4.9014e-05 -1.0451e-10 0
5.1854e-05 -1.71e-11 0
4.3042e-05 2.3504e-10 0
4.6004e-05 -3.4076e-12 0
3.6973e-05 1.3266e-10 0
4.0108e-05 8.76e-12 0
3.0835e-05 -1.1196e-10 0
3.3804e-05 4.9995e-12 0
2.5004e-05 -3.3242e-11 0
2.787e-05 6.3223e-12 0
1.8122e-05 9.6245e-11 0
2.2045e-05 1.139e-11 0
1.0204e-05 -7.5528e-11 0
1.3967e-05 -5.2883e-12 0
4.5786e-06 -1.7345e-10 0
6.7195e-06 -2.5438e-11 0
1.6662e-06 9.1985e-11 0
2.6829e-06 -1.0137e-11 0
4.9117e-07 2.1667e-10 0
8.0908e-07 2.212e-11 0
1.3403e-07 -7.1913e-11 0
2.4595e-07 1.6328e-11 0
2.4128e-08 -1.7555e-10 0
3.7224e-08 -1.7227e-11 0
8.1885e-09 7.9057e-11 0
2.0993e-08 -5.7744e-12 0
-7.2206e-10 7.5194e-11 0
-4.2358e-09 2.0481e-11 0
1.5551e-09 -8.8031e-11 0
2.1536e-09 -1.4907e-11 0
0.00012852 -5.5817e-10 0
0.00013062 -3.3213e-10 0
0.00013319 -6.9297e-10 0
0.00012323 -4.6737e-10 0
0.00012584 -3.0556e-10 0
0.00011824 -3.8522e-10 0
0.00012108 -3.3557e-10 0
0.00011367 -4.5467e-10 0
0.00011596 -3.5286e-10 0
0.00010836 -6.0844e-10 0
0.0001109 -3.0962e-10 0
0.00010332 -6.8263e-10 0
0.00010592 -2.0634e-10 0
9.8275e-05 -5.9599e-10 0
0.00010077 -1.0485e-10 0
9.2933e-05 -3.379e-10 0
9.5629e-05 -5.7724e-11 0
8.7836e-05 3.3897e-11 0
9.0375e-05 -4.8596e-11 0
8.2408e-05 2.9994e-10 0
8.5145e-05 -3.5133e-11 0
7.7057e-05 2.1005e-10 0
7.973e-05 -1.5569e-11 0
7.1666e-05 -1.3667e-10 0
7.4374e-05 -1.2533e-11 0
6.5978e-05 -2.9892e-10 0
6.8834e-05 -1.7892e-11 0
6.0572e-05 -6.4912e-11 0
6.328e-05 -5.4336e-12 0
5.4647e-05 2.3184e-10 0
5.7621e-05 1.7113e-11 0
4.9014e-05 1.6933e-10 0
5.1855e-05 1.6153e-11 0
4.3042e-05 -1.5008e-10 0
4.6004e-05 -1.0591e-11 0
3.6973e-05 -2.2414e-10 0
4.0108e-05 -2.2991e-11 0
3.0835e-05 6.9707e-11 0
3.3805e-05 -3.082e-13 0
2.5004e-05 2.4429e-10 0
2.7871e-05 2.0871e-11 0
1.8122e-05 3.0547e-11 0
2.2045e-05 8.8778e-12 0
1.0204e-05 -1.6732e-10 0
1.3966e-05 -6.282e-12 0
4.5786e-06 -6.4752e-11 0
6.7195e-06 1.5156e-12 0
1.6662e-06 4.8964e-11 0
2.6831e-06 -8.4717e-13 0
4.9117e-07 1.0391e-11 0
8.0905e-07 -1.9217e-11 0
1.34e-07 4.2542e-12 0
2.4592e-07 -5.1863e-12 0
2.4124e-08 4.0898e-11 0
3.7327e-08 2.1145e-11 0
8.1923e-09 2.4287e-11 0
2.0914e-08 9.3997e-12 0
-7.2065e-10 -3.556e-11 0
-4.4055e-09 -1.7537e-12 0
1.5792e-09 -6.7228e-11 0
2.3005e-09 -9.3761e-12 0
0.00012852 -9.8174e-11 0
0.00013062 -9.1772e-11 0
0.00013319 -8.7271e-11 0
0.00012323 -1.4594e-10 0
0.00012584 -8.816e-11 0
0.00011824 -1.4457e-10 0
0.00012108 -4.407e-11 0
0.00011367 -1.9309e-11 0
0.00011596 -1.5744e-12 0
0.00010836 1.1747e-10 0
0.0001109 5.9705e-12 0
0.00010332 1.5077e-10 0
0.00010592 -1.6137e-11 0
9.8275e-05 1.0692e-10 0
0.00010077 -3.4546e-11 0
9.2933e-05 6.2925e-11 0
9.5629e-05 -2.6437e-11 0
8.7836e-05 1.5253e-11 0
9.0374e-05 -4.8993e-12 0
8.2408e-05 -8.1312e-11 0
8.5144e-05 4.9318e-12 0
7.7057e-05 -1.7365e-10 0
7.973e-05 1.9491e-12 0
7.1666e-05 -1.3448e-10 0
7.4374e-05 -2.8364e-13 0
6.5978e-05 3.8538e-11 0
6.8834e-05 -3.0364e-12 0
6.0572e-05 1.5509e-10 0
6.328e-05 -1.0388e-11 0
5.4647e-05 5.9176e-11 0
5.7621e-05 -9.6781e-12 0
4.9014e-05 -1.125e-10 0
5.1855e-05 3.8947e-12 0
4.3042e-05 -8.6882e-11 0
4.6004e-05 1.2277e-11 0
3.6973e-05 8.6106e-11 0
4.0108e-05 4.5951e-12 0
3.0835e-05 7.7114e-11 0
3.3804e-05 -8.5558e-12 0
2.5004e-05 -1.0432e-10 0
2.787e-05 -1.3583e-11 0
1.8122e-05 -7.9378e-11 0
2.2045e-05 -4.0118e-12 0
1.0204e-05 1.506e-10 0
1.3967e-05 1.4116e-11 0
4.5786e-06 1.3795e-10 0
6.7195e-06 1.9133e-11 0
1.6662e-06 -1.4449e-10 0
2.6828e-06 -4.0093e-13 0
4.9118e-07 -1.8993e-10 0
8.0898e-07 -2.0796e-11 0
1.3404e-07 8.1585e-11 0
2.4621e-07 -1.2103e-11 0
2.4125e-08 1.6519e-10 0
3.7476e-08 1.1313e-11 0
8.1406e-09 -1.919e-11 0
2.0717e-08 1.1354e-11 0
-7.2754e-10 -7.6276e-11 0
-4.5833e-09 -2.3101e-12 0
1.6221e-09 -1.7395e-11 0
2.4693e-09 -3.37e-12 0
0.00012852 -1.0017e-10 0
0.00013062 2.3689e-11 0
0.00013319 -1.3379e-10 0
0.00012323 -8.3858e-11 0
0.00012584 1.1428e-11 0
0.00011824 -9.8945e-11 0
0.00012108 -3.233e-11 0
0.00011367 -1.5038e-10 0
0.00011596 -4.6235e-11 0
0.00010836 -1.0737e-10 0
0.0001109 -2.2749e-11 0
0.00010332 5.2501e-11 0
0.00010592 6.0368e-12 0
9.8275e-05 1.6604e-10 0
0.00010077 1.7618e-11 0
9.2933e-05 7.7972e-11 0
9.5629e-05 1.1707e-11 0
8.7836e-05 -1.3575e-10 0
9.0375e-05 8.4357e-13 0
8.2408e-05 -1.9709e-10 0
8.5145e-05 -4.7013e-12 0
7.7057e-05 2.0888e-11 0
7.973e-05 -3.5885e-12 0
7.1666e-05 2.4831e-10 0
7.4374e-05 2.6511e-12 0
6.5978e-05 1.4853e-10 0
6.8834e-05 1.0334e-11 0
6.0571e-05 -1.6193e-10 0
6.328e-05 6.4506e-12 0
5.4647e-05 -2.3958e-10 0
5.7621e-05 -1.1903e-11 0
4.9014e-05 1.9579e-11 0
5.1854e-05 -1.6838e-11 0
4.3042e-05 2.1322e-10 0
4.6004e-05 6.3791e-12 0
3.6973e-05 6.7909e-11 0
4.0108e-05 1.9825e-11 0
3.0835e-05 -1.4936e-10 0
3.3804e-05 -2.3406e-12 0
2.5004e-05 -1.0924e-10 0
2.787e-05 -1.9925e-11 0
1.8122e-05 6.1935e-11 0
2.2045e-05 -3.7593e-12 0
1.0204e-05 8.3794e-11 0
1.3967e-05 8.9775e-12 0
4.5786e-06 4.3056e-12 0
6.7195e-06 -1.17e-12 0
1.6662e-06 -3.7531e-12 0
2.6827e-06 2.319e-12 0
4.9119e-07 -2.1702e-13 0
8.0893e-07 1.6692e-11 0
1.3408e-07 -4.9904e-11 0
2.4616e-07 -4.6067e-13 0
2.4133e-08 -3.2645e-11 0
3.7466e-08 -2.1219e-11 0
8.1233e-09 3.8204e-11 0
2.0823e-08 -6.2057e-12 0
-7.3369e-10 3.1974e-11 0
-4.4947e-09 3.4882e-12 0
1.6279e-09 -4.4038e-12 0
2.3382e-09 9.3002e-12 0
0.00012852 1.0919e-10 0
0.00013062 -3.3396e-11 0
0.00013319 1.2503e-10 0
0.00012323 1.2309e-10 0
0.00012584 -8.7217e-12 0
0.00011824 1.6684e-10 0
0.00012108 4.5581e-11 0
0.00011367 1.7856e-10 0
0.00011596 3.9002e-11 0
0.00010836 6.9889e-12 0
0.0001109 -7.9641e-12 0
0.00010332 -2.7913e-10 0
0.00010592 -3.1405e-11 0
9.8275e-05 -3.9973e-10 0
0.00010077 -2.0097e-11 0
9.2933e-05 -1.7249e-10 0
9.5629e-05 -1.4425e-12 0
8.7836e-05 2.3574e-10 0
9.0375e-05 7.7609e-12 0
8.2408e-05 4.0504e-10 0
8.5145e-05 1.1414e-11 0
7.7057e-05 1.3997e-10 0
7.973e-05 1.1281e-11 0
7.1666e-05 -2.2296e-10 0
7.4374e-05 1.4137e-12 0
6.5978e-05 -2.3902e-10 0
6.8834e-05 -9.2261e-12 0
6.0572e-05 3.4474e-11 0
6.328e-05 1.0516e-13 0
5.4647e-05 1.8803e-10 0
5.7621e-05 1.8092e-11 0
4.9014e-05 7.0845e-11 0
5.1855e-05 7.7264e-12 0
4.3042e-05 -1.0144e-10 0
4.6004e-05 -2.1326e-11 0
3.6973e-05 -1.1616e-10 0
4.0108e-05 -1.7707e-11 0
3.0835e-05 1.797e-11 0
3.3805e-05 1.5568e-11 0
2.5004e-05 1.1783e-10 0
2.7871e-05 2.1089e-11 0
1.8122e-05 2.5228e-11 0
2.2045e-05 -8.7694e-12 0
1.0204e-05 -1.3775e-10 0
1.3966e-05 -2.3598e-11 0
4.5786e-06 -8.1141e-11 0
6.7195e-06 -5.1268e-12 0
1.6662e-06 1.4373e-10 0
2.6831e-06 1.5113e-11 0
4.9116e-07 1.4955e-10 0
8.0901e-07 1.4539e-11 0
1.3403e-07 -8.4943e-11 0
2.4584e-07 3.582e-12 0
2.4145e-08 -1.5637e-10 0
3.7286e-08 -5.3921e-12 0
8.1827e-09 -1.0974e-11 0
2.108e-08 -1.7221e-11 0
-7.3192e-10 8.3214e-11 0
-4.2579e-09 -1.5368e-11 0
1.5778e-09 8.0269e-11 0
2.1107e-09 2.3804e-11 0
0.00012852 -1.3809e-10 0
0.00013062 4.0043e-11 0
0.00013319 -1.3726e-10 0
0.00012323 -1.5934e-10 0
0.00012584 -1.8531e-12 0
0.00011824 -2.1573e-10 0
0.00012108 -7.5409e-11 0
0.00011367 -1.9478e-10 0
0.00011596 -4.3672e-11 0
0.00010836 7.4885e-11 0
0.0001109 3.4809e-11 0
0.00010332 4.4265e-10 0
0.00010592 5.3625e-11 0
9.8275e-05 5.4511e-10 0
0.00010077 1.664e-11 0
9.2933e-05 2.3035e-10 0
9.5629e-05 -1.3678e-11 0
8.7836e-05 -2.368e-10 0
9.0374e-05 -1.4916e-11 0
8.2408e-05 -4.1382e-10 0
8.5144e-05 -8.0233e-12 0
7.7057e-05 -1.767e-10 0
7.973e-05 -2.7129e-12 0
7.1666e-05 1.3807e-10 0
7.4374e-05 8.6918e-12 0
6.5978e-05 2.1199e-10 0
6.8834e-05 1.4904e-11 0
6.0571e-05 1.0129e-10 0
6.328e-05 1.1312e-12 0
5.4647e-05 -2.9528e-11 0
5.7621e-05 -9.3417e-12 0
4.9014e-05 -1.2562e-10 0
5.1855e-05 3.5849e-12 0
4.3042e-05 -9.8622e-11 0
4.6004e-05 9.2198e-12 0
3.6973e-05 6.7691e-11 0
4.0108e-05 -7.9861e-12 0
3.0835e-05 1.3356e-10 0
3.3804e-05 -9.4323e-12 0
2.5004e-05 -2.0321e-11 0
2.787e-05 1.0017e-11 0
1.8122e-05 -1.2148e-10 0
2.2045e-05 7.2992e-12 0
1.0204e-05 -9.222e-12 0
1.3966e-05 -9.5594e-12 0
4.5786e-06 6.9196e-11 0
6.7194e-06 -3.2107e-12 0
1.6663e-06 -1.343e-11 0
2.683e-06 2.2013e-12 0
4.9116e-07 -2.4626e-11 0
8.0913e-07 -8.8533e-12 0
1.3398e-07 7.7843e-11 0
2.4594e-07 5.5559e-12 0
2.4134e-08 2.0553e-11 0
3.7203e-08 2.1093e-11 0
8.22e-09 -1.2533e-10 0
2.0988e-08 -9.3692e-12 0
-7.2276e-10 -2.0231e-11 0
-4.2549e-09 -1.6211e-11 0
1.5336e-09 1.2981e-10 0
2.2076e-09 9.7779e-12 0
0.00012852 1.8988e-10 0
0.00013062 1.8073e-11 0
0.00013319 1.9129e-10 0
0.00012323 1.6789e-10 0
0.00012584 7.8325e-11 0
0.00011824 2.0349e-10 0
0.00012108 1.7578e-10 0
0.00011367 1.5956e-10 0
0.00011596 9.9889e-11 0
0.00010836 -1.6154e-10 0
0.0001109 -3.1539e-11 0
0.00010332 -5.4676e-10 0
0.00010592 -5.3156e-11 0
9.8275e-05 -5.8989e-10 0
0.00010077 6.7436e-12 0
9.2933e-05 -2.238e-10 0
9.5629e-05 4.0463e-11 0
8.7836e-05 1.9148e-10 0
9.0375e-05 2.3739e-11 0
8.2408e-05 2.9935e-10 0
8.5145e-05 1.2817e-12 0
7.7057e-05 1.5047e-10 0
7.973e-05 -6.8233e-12 0
7.1666e-05 2.2066e-11 0
7.4374e-05 -9.9553e-12 0
6.5978e-05 -3.7416e-11 0
6.8834e-05 -3.5749e-12 0
6.0571e-05 -1.1804e-10 0
6.328e-05 8.9844e-12 0
5.4647e-05 -1.0477e-10 0
5.7621e-05 3.0263e-12 0
4.9014e-05 6.9729e-11 0
5.1854e-05 -7.8861e-12 0
4.3042e-05 1.4881e-10 0
4.6004e-05 9.0365e-12 0
3.6973e-05 5.1393e-12 0
4.0108e-05 1.9226e-11 0
3.0835e-05 -1.0618e-10 0
3.3804e-05 -1.244e-11 0
2.5004e-05 -4.4992e-11 0
2.787e-05 -2.6931e-11 0
1.8122e-05 4.1636e-11 0
2.2045e-05 1.2113e-11 0
1.0204e-05 6.898e-11 0
1.3967e-05 3.2347e-11 0
4.5785e-06 2.1645e-11 0
6.7195e-06 -4.8391e-12 0
1.6662e-06 -9.5876e-11 0
2.6826e-06 -3.1582e-11 0
4.9119e-07 -8.8759e-11 0
8.0897e-07 -5.6049e-12 0
1.3403e-07 8.9146e-11 0
2.4625e-07 1.7276e-11 0
2.4118e-08 1.1817e-10 0
3.7444e-08 7.6959e-14 0
8.1608e-09 -2.5063e-11 0
2.0693e-08 3.9031e-12 0
-7.2007e-10 -7.8529e-11 0
-4.5648e-09 2.4986e-11 0
1.5753e-09 -4.849e-11 0
2.5191e-09 -2.8366e-11 0
0.00012852 -1.3989e-10 0
0.00013062 2.5517e-10 0
0.00013319 -1.5368e-10 0
0.00012323 -1.3488e-11 0
0.00012584 1.6103e-10 0
0.00011824 -7.6353e-12 0
0.00012108 2.9661e-11 0
0.00011367 1.2319e-11 0
0.00011596 1.4703e-10 0
0.00010836 2.9718e-10 0
0.0001109 3.0289e-10 0
0.00010332 6.0242e-10 0
0.00010592 2.6286e-10 0
9.8275e-05 5.2047e-10 0
0.00010077 1.1086e-10 0
9.2933e-05 1.1627e-10 0
9.5629e-05 2.4133e-11 0
8.7836e-05 -1.6521e-10 0
9.0374e-05 2.4332e-11 0
8.2408e-05 -1.342e-10 0
8.5144e-05 3.4236e-11 0
7.7057e-05 -6.1058e-11 0
7.973e-05 2.3726e-11 0
7.1666e-05 -1.2745e-10 0
7.4374e-05 6.4371e-12 0
6.5978e-05 -1.1199e-10 0
6.8834e-05 -1.0899e-11 0
6.0572e-05 8.1102e-11 0
6.328e-05 -1.0596e-11 0
5.4647e-05 1.6691e-10 0
5.7621e-05 1.3587e-11 0
4.9014e-05 4.7017e-11 0
5.1855e-05 1.5787e-11 0
4.3042e-05 -5.4253e-11 0
4.6004e-05 -1.3261e-11 0
3.6973e-05 -7.0967e-11 0
4.0108e-05 -9.8331e-12 0
3.0835e-05 -5.2687e-11 0
3.3805e-05 1.977e-11 0
2.5003e-05 5.1208e-11 0
2.7871e-05 6.7352e-12 0
1.8122e-05 1.2331e-10 0
2.2045e-05 -1.6487e-11 0
1.0204e-05 -9.665e-12 0
1.3966e-05 3.3191e-12 0
4.5786e-06 -1.2959e-10 0
6.7197e-06 1.0062e-11 0
1.6662e-06 -5.9295e-12 0
2.6829e-06 -9.7877e-12 0
4.9117e-07 8.1999e-11 0
8.0878e-07 7.0005e-13 0
1.3409e-07 -5.9669e-11 0
2.4608e-07 -8.9268e-13 0
2.4135e-08 -4.3486e-11 0
3.7628e-08 -2.1758e-11 0
8.1e-09 1.7126e-10 0
2.0748e-08 2.2339e-11 0
-7.3111e-10 1.704e-11 0
-4.6889e-09 3.5255e-11 0
1.6619e-09 -2.3123e-10 0
2.5078e-09 -3.7447e-11 0
0.00012852 7.4405e-10 0
0.00013062 1.2155e-09 0
0.00013319 9.2841e-10 0
0.00012323 4.282e-10 0
0.00012584 1.2616e-09 0
0.00011824 3.2866e-10 0
0.00012108 1.3947e-09 0
0.00011367 3.1539e-10 0
0.00011596 1.0795e-09 0
0.00010836 3.6317e-11 0
0.0001109 6.8882e-10 0
0.00010332 -2.4393e-10 0
0.00010592 5.7344e-10 0
9.8275e-05 -1.1846e-10 0
0.00010077 5.8452e-10 0
9.2933e-05 2.0329e-10 0
9.5629e-05 4.8297e-10 0
8.7836e-05 2.2167e-10 0
9.0375e-05 2.9064e-10 0
8.2408e-05 -3.3067e-11 0
8.5145e-05 1.4273e-10 0
7.7057e-05 -9.1678e-11 0
7.973e-05 7.3289e-11 0
7.1666e-05 1.0078e-10 0
7.4374e-05 4.8054e-11 0
6.5978e-05 1.4722e-10 0
6.8834e-05 3.6251e-11 0
6.0571e-05 -3.0027e-12 0
6.328e-05 8.3483e-12 0
5.4647e-05 -7.5272e-11 0
5.7621e-05 -2.0653e-11 0
4.9014e-05 -6.739e-11 0
5.1855e-05 -5.9606e-12 0
4.3042e-05 -4.5499e-11 0
4.6004e-05 1.7436e-11 0
3.6973e-05 7.0013e-11 0
4.0108e-05 1.0247e-12 0
3.0835e-05 1.2457e-10 0
3.3804e-05 -3.4337e-12 0
2.5004e-05 -1.9758e-11 0
2.7871e-05 1.9866e-11 0
1.8122e-05 -9.4895e-11 0
2.2045e-05 3.8174e-13 0
1.0204e-05 -9.5585e-12 0
1.3966e-05 -3.5008e-11 0
4.5786e-06 1.9505e-11 0
6.7194e-06 -2.6735e-12 0
1.6662e-06 3.5487e-11 0
2.6832e-06 4.3474e-11 0
4.9114e-07 4.1769e-11 0
8.0909e-07 6.2022e-12 0
1.3404e-07 -8.8985e-11 0
2.4583e-07 -4.684e-11 0
2.415e-08 -7.1542e-11 0
3.7283e-08 -1.653e-12 0
8.1497e-09 1.1504e-10 0
2.103e-08 3.6919e-11 0
-7.3544e-10 6.2725e-11 0
-4.2956e-09 -1.9177e-11 0
1.6473e-09 -7.8889e-11 0
2.1233e-09 2.4489e-12 0
0.00012852 1.6727e-09 0
0.00013062 4.8027e-09 0
0.00013319 1.7857e-09 0
0.00012323 2.2471e-09 0
0.00012584 4.3765e-09 0
0.00011824 2.3061e-09 0
0.00012108 4.1433e-09 0
0.00011367 1.9451e-09 0
0.00011596 4.2942e-09 0
0.00010836 1.7666e-09 0
0.0001109 4.1856e-09 0
0.00010332 1.5564e-09 0
0.00010592 3.4378e-09 0
9.8275e-05 9.3892e-10 0
0.00010077 2.4707e-09 0
9.2933e-05 3.1424e-10 0
9.5628e-05 1.7411e-09 0
8.7836e-05 2.363e-10 0
9.0374e-05 1.2487e-09 0
8.2408e-05 4.4619e-10 0
8.5145e-05 8.3602e-10 0
7.7057e-05 3.483e-10 0
7.973e-05 4.8635e-10 0
7.1666e-05 2.9132e-11 0
7.4374e-05 2.3945e-10 0
6.5978e-05 -9.2466e-11 0
6.8834e-05 1.0261e-10 0
6.0571e-05 -7.9418e-11 0
6.328e-05 5.6011e-11 0
5.4647e-05 -8.0053e-11 0
5.7621e-05 3.1295e-11 0
4.9014e-05 2.6648e-11 0
5.1854e-05 -6.184e-12 0
4.3042e-05 1.2578e-10 0
4.6004e-05 -2.8605e-12 0
3.6973e-05 3.8224e-11 0
4.0108e-05 2.1034e-11 0
3.0835e-05 -3.5961e-11 0
3.3804e-05 -7.2012e-12 0
2.5004e-05 -2.1522e-11 0
2.787e-05 -2.104e-11 0
1.8122e-05 -6.695e-11 0
2.2045e-05 1.8513e-11 0
1.0204e-05 -2.8859e-11 0
1.3967e-05 8.3451e-12 0
4.5786e-06 1.3298e-10 0
6.7193e-06 -1.9323e-11 0
1.6663e-06 6.2691e-11 0
2.6827e-06 1.5637e-11 0
4.9119e-07 -1.4849e-10 0
8.0933e-07 7.0017e-12 0
1.3398e-07 -2.2296e-11 0
2.4615e-07 -2.3317e-11 0
2.4111e-08 1.2576e-10 0
3.697e-08 2.3735e-11 0
8.2285e-09 -1.0557e-10 0
2.0962e-08 -3.3266e-12 0
-7.1884e-10 -4.5872e-11 0
-4.0065e-09 -5.0203e-11 0
1.5293e-09 2.0422e-10 0
2.006e-09 4.4664e-11 0
0.00012852 8.4677e-09 0
0.00013062 1.7752e-08 0
0.00013319 1.0329e-08 0
0.00012323 7.2726e-09 0
0.00012584 1.6642e-08 0
0.00011824 6.9111e-09 0
0.00012108 1.6501e-08 0
0.00011367 6.8191e-09 0
0.00011596 1.5204e-08 0
0.00010836 6.0134e-09 0
0.0001109 1.3508e-08 0
0.00010332 4.8768e-09 0
0.00010591 1.1957e-08 0
9.8274e-05 4.0813e-09 0
0.00010077 1.012e-08 0
9.2932e-05 3.2753e-09 0
9.5628e-05 7.7719e-09 0
8.7835e-05 2.0239e-09 0
9.0373e-05 5.3907e-09 0
8.2407e-05 8.6464e-10 0
8.5143e-05 3.4727e-09 0
7.7057e-05 3.8832e-10 0
7.9729e-05 2.1076e-09 0
7.1666e-05 2.8044e-10 0
7.4374e-05 1.1912e-09 0
6.5978e-05 1.5445e-10 0
6.8834e-05 6.0674e-10 0
6.0571e-05 1.3934e-10 0
6.328e-05 2.6469e-10 0
5.4647e-05 1.612e-10 0
5.7621e-05 1.1648e-10 0
4.9014e-05 1.6093e-11 0
5.1855e-05 6.0298e-11 0
4.3042e-05 -9.001e-11 0
4.6004e-05 -3.1306e-12 0
3.6973e-05 -6.6515e-11 0
4.0108e-05 -2.4295e-11 0
3.0835e-05 -4.6138e-11 0
3.3805e-05 1.4475e-11 0
2.5003e-05 4.4627e-11 0
2.787e-05 1.0596e-11 0
1.8122e-05 9.7001e-11 0
2.2045e-05 -1.4113e-11 0
1.0204e-05 -2.0369e-11 0
1.3967e-05 1.7598e-11 0
4.5785e-06 -2.7905e-11 0
6.7197e-06 2.4754e-11 0
1.6662e-06 1.2332e-11 0
2.6826e-06 -3.6974e-11 0
4.9123e-07 -6.2623e-11 0
8.0889e-07 -3.1317e-11 0
1.3404e-07 6.43e-11 0
2.4632e-07 6.0605e-11 0
2.4091e-08 1.0065e-10 0
3.7429e-08 2.6504e-11 0
8.1891e-09 -1.7835e-10 0
2.0725e-08 -7.9071e-11 0
-7.1298e-10 -7.651e-11 0
-4.4856e-09 -4.5988e-12 0
1.5106e-09 1.9896e-10 0
2.4291e-09 4.087e-11 0
0.00012852 2.6912e-08 0
0.00013063 5.071e-08 0
0.0001332 3.0638e-08 0
0.00012323 2.7624e-08 0
0.00012584 4.7029e-08 0
0.00011823 2.6998e-08 0
0.00012108 4.6664e-08 0
0.00011367 2.4593e-08 0
0.00011596 4.6846e-08 0
0.00010835 2.1931e-08 0
0.0001109 4.4776e-08 0
0.00010332 1.8752e-08 0
0.00010591 3.9778e-08 0
9.8271e-05 1.4588e-08 0
0.00010077 3.3252e-08 0
9.293e-05 1.0497e-08 0
9.5623e-05 2.6459e-08 0
8.7833e-05 7.4576e-09 0
9.037e-05 1.9788e-08 0
8.2406e-05 5.0855e-09 0
8.5141e-05 1.3622e-08 0
7.7055e-05 3.0015e-09 0
7.9727e-05 8.5648e-09 0
7.1665e-05 1.5903e-09 0
7.4372e-05 4.933e-09 0
6.5977e-05 8.3638e-10 0
6.8833e-05 2.6187e-09 0
6.0571e-05 2.9707e-10 0
6.3279e-05 1.2715e-09 0
5.4647e-05 1.953e-11 0
5.7621e-05 5.3104e-10 0
4.9014e-05 1.3611e-11 0
5.1854e-05 1.9855e-10 0
4.3042e-05 -2.8891e-11 0
4.6004e-05 9.3214e-11 0
3.6973e-05 -3.484e-11 0
4.0108e-05 1.8448e-11 0
3.0835e-05 6.3001e-11 0
3.3804e-05 -1.0415e-11 0
2.5004e-05 3.3974e-11 0
2.7871e-05 2.5647e-11 0
1.8122e-05 -1.1631e-12 0
2.2045e-05 -1.0318e-12 0
1.0204e-05 5.721e-11 0
1.3966e-05 -2.0356e-11 0
4.5786e-06 -5.8523e-11 0
6.7195e-06 2.9398e-11 0
1.6662e-06 -1.3693e-10 0
2.6833e-06 -1.2373e-11 0
4.9114e-07 1.31e-10 0
8.0871e-07 -3.0839e-11 0
1.3409e-07 1.5392e-10 0
2.4574e-07 5.6076e-11 0
2.4166e-08 -1.8465e-10 0
3.788e-08 -9.3955e-12 0
8.1025e-09 -6.6059e-11 0
2.0924e-08 -5.3987e-11 0
-7.4239e-10 8.4422e-11 0
-4.9902e-09 4.8202e-11 0
1.6395e-09 -3.5977e-11 0
2.6727e-09 -1.2308e-11 0
0.00012853 7.3494e-08 0
0.00013064 1.2083e-07 0
0.00013321 8.5075e-08 0
0.00012323 6.9483e-08 0
0.00012584 1.1255e-07 0
0.00011824 7.028e-08 0
0.00012109 1.1253e-07 0
0.00011367 7.0613e-08 0
0.00011596 1.13e-07 0
0.00010835 6.6486e-08 0
0.00011089 1.1173e-07 0
0.00010331 5.8653e-08 0
0.0001059 1.0682e-07 0
9.8265e-05 4.9199e-08 0
0.00010076 9.6221e-08 0
9.2923e-05 3.8579e-08 0
9.5612e-05 8.0458e-08 0
8.7827e-05 2.7552e-08 0
9.0358e-05 6.245e-08 0
8.24e-05 1.8085e-08 0
8.5131e-05 4.5039e-08 0
7.7052e-05 1.1123e-08 0
7.972e-05 2.9988e-08 0
7.1663e-05 6.2017e-09 0
7.4367e-05 1.8265e-08 0
6.5976e-05 3.0778e-09 0
6.883e-05 1.0111e-08 0
6.0571e-05 1.4693e-09 0
6.3277e-05 5.0935e-09 0
5.4647e-05 5.9827e-10 0
5.762e-05 2.3531e-09 0
4.9014e-05 1.8306e-10 0
5.1854e-05 9.6392e-10 0
4.3042e-05 1.5479e-10 0
4.6004e-05 3.4305e-10 0
3.6973e-05 9.9537e-11 0
4.0108e-05 1.4336e-10 0
3.0835e-05 -1.9895e-11 0
3.3804e-05 4.0745e-11 0
2.5004e-05 -6.2211e-11 0
2.787e-05 -2.902e-11 0
1.8122e-05 -4.798e-11 0
2.2046e-05 6.4596e-12 0
1.0204e-05 6.5435e-11 0
1.3967e-05 2.5404e-11 0
4.5786e-06 1.8041e-11 0
6.7192e-06 -2.7754e-11 0
1.6663e-06 -8.7039e-11 0
2.6831e-06 -3.7052e-12 0
4.9109e-07 1.3007e-10 0
8.0919e-07 6.0442e-11 0
1.3401e-07 2.5266e-11 0
2.4563e-07 -2.9675e-11 0
2.4208e-08 -2.3962e-10 0
3.7357e-08 -7.5509e-11 0
8.1474e-09 1.3457e-10 0
2.1189e-08 7.8049e-11 0
-7.5817e-10 1.6206e-10 0
-4.4287e-09 4.0631e-11 0
1.6678e-09 -1.9072e-10 0
2.1905e-09 -6.5164e-11 0
0.00012854 1.6019e-07 0
0.00013066 2.1635e-07 0
0.00013323 1.7815e-07 0
0.00012324 1.5863e-07 0
0.00012586 2.0563e-07 0
0.00011824 1.6108e-07 0
0.0001211 2.1175e-07 0
0.00011367 1.6226e-07 0
0.00011597 2.2642e-07 0
0.00010834 1.6081e-07 0
0.00011089 2.3661e-07 0
0.0001033 1.5237e-07 0
0.0001059 2.3623e-07 0
9.8248e-05 1.346e-07 0
0.00010074 2.2435e-07 0
9.2904e-05 1.1069e-07 0
9.5588e-05 2.009e-07 0
8.7809e-05 8.4849e-08 0
9.0332e-05 1.6736e-07 0
8.2385e-05 5.9833e-08 0
8.5105e-05 1.2852e-07 0
7.704e-05 3.842e-08 0
7.9697e-05 9.0624e-08 0
7.1654e-05 2.2608e-08 0
7.435e-05 5.8499e-08 0
6.5971e-05 1.2105e-08 0
6.8819e-05 3.4397e-08 0
6.0568e-05 5.8474e-09 0
6.3271e-05 1.8303e-08 0
5.4645e-05 2.7181e-09 0
5.7616e-05 8.7883e-09 0
4.9014e-05 1.1262e-09 0
5.1853e-05 3.8356e-09 0
4.3042e-05 2.6586e-10 0
4.6003e-05 1.4846e-09 0
3.6973e-05 8.0094e-11 0
4.0108e-05 4.9302e-10 0
3.0835e-05 4.3215e-11 0
3.3805e-05 1.8293e-10 0
2.5003e-05 -6.1244e-11 0
2.787e-05 3.6119e-11 0
1.8122e-05 7.782e-12 0
2.2045e-05 -1.8269e-11 0
1.0204e-05 1.9894e-11 0
1.3967e-05 3.835e-11 0
4.5786e-06 -3.0656e-11 0
6.7198e-06 -1.7253e-11 0
1.6662e-06 1.2409e-10 0
2.6825e-06 -1.7424e-11 0
4.9119e-07 2.1248e-11 0
8.0902e-07 7.089e-11 0
1.3398e-07 -2.5309e-10 0
2.4644e-07 -5.7979e-11 0
2.4117e-08 6.8054e-11 0
3.6881e-08 -4.6543e-11 0
8.2449e-09 2.4051e-10 0
2.0804e-08 1.0647e-10 0
-7.1866e-10 -4.5437e-11 0
-3.6482e-09 -2.2548e-11 0
1.5278e-09 -1.4594e-10 0
1.7782e-09 -3.3079e-11 0
0.00012857 2.5372e-07 0
0.0001307 2.8654e-07 0
0.00013326 2.7263e-07 0
0.00012327 2.5304e-07 0
0.0001259 2.8093e-07 0
0.00011826 2.7608e-07 0
0.00012113 3.0089e-07 0
0.00011368 3.047e-07 0
0.000116 3.4144e-07 0
0.00010834 3.2149e-07 0
0.00011091 3.8932e-07 0
0.00010329 3.2203e-07 0
0.0001059 4.2612e-07 0
9.8226e-05 3.0545e-07 0
0.00010073 4.3745e-07 0
9.2871e-05 2.7035e-07 0
9.5554e-05 4.188e-07 0
8.7769e-05 2.2076e-07 0
9.0282e-05 3.7327e-07 0
8.2346e-05 1.6597e-07 0
8.505e-05 3.0798e-07 0
7.7006e-05 1.1436e-07 0
7.9645e-05 2.3335e-07 0
7.1629e-05 7.1612e-08 0
7.4307e-05 1.6128e-07 0
6.5954e-05 4.0703e-08 0
6.8787e-05 1.0119e-07 0
6.0558e-05 2.0829e-08 0
6.3251e-05 5.7396e-08 0
5.464e-05 9.4181e-09 0
5.7605e-05 2.9278e-08 0
4.9011e-05 3.9465e-09 0
5.1846e-05 1.3367e-08 0
4.3041e-05 1.5654e-09 0
4.6001e-05 5.5068e-09 0
3.6972e-05 4.258e-10 0
4.0107e-05 2.034e-09 0
3.0835e-05 9.4786e-11 0
3.3804e-05 6.2868e-10 0
2.5003e-05 1.0521e-10 0
2.7871e-05 2.0445e-10 0
1.8122e-05 5.2363e-11 0
2.2045e-05 8.1125e-11 0
1.0204e-05 -1.0446e-10 0
1.3966e-05 -3.0037e-11 0
4.5786e-06 -3.1535e-11 0
6.72e-06 -1.1096e-11 0
1.6661e-06 2.0583e-10 0
2.6828e-06 5.7553e-11 0
4.912e-07 -1.3934e-10 0
8.0852e-07 -3.747e-11 0
1.3408e-07 -2.0162e-10 0
2.4656e-07 -4.1007e-11 0
2.406e-08 3.6773e-10 0
3.7468e-08 1.0514e-10 0
8.1843e-09 -6.9617e-12 0
2.0412e-08 -3.027e-11 0
-6.8887e-10 -2.7269e-10 0
-4.2609e-09 -8.2437e-11 0
1.5165e-09 1.1614e-10 0
2.3469e-09 7.0961e-11 0
0.00012861 2.9924e-07 0
0.00013074 2.855e-07 0
0.00013328 3.1162e-07 0
0.00012332 3.1578e-07 0
0.00012597 2.9719e-07 0
0.00011832 3.5901e-07 0
0.00012121 3.4622e-07 0
0.00011374 4.2662e-07 0
0.00011608 4.2878e-07 0
0.00010839 5.008e-07 0
0.00011099 5.2779e-07 0
0.0001033 5.5397e-07 0
0.00010595 6.2334e-07 0
9.8208e-05 5.687e-07 0
0.00010074 6.953e-07 0
9.2826e-05 5.4263e-07 0
9.553e-05 7.2385e-07 0
8.7704e-05 4.797e-07 0
9.0221e-05 6.9806e-07 0
8.227e-05 3.8942e-07 0
8.496e-05 6.2124e-07 0
7.6933e-05 2.8847e-07 0
7.9543e-05 5.0796e-07 0
7.1568e-05 1.9401e-07 0
7.4211e-05 3.7907e-07 0
6.5909e-05 1.1772e-07 0
6.8709e-05 2.5635e-07 0
6.0529e-05 6.4409e-08 0
6.3195e-05 1.5614e-07 0
5.4624e-05 3.1634e-08 0
5.7571e-05 8.5294e-08 0
4.9003e-05 1.3642e-08 0
5.1828e-05 4.1597e-08 0
4.3038e-05 5.4032e-09 0
4.5992e-05 1.8044e-08 0
3.6971e-05 2.0895e-09 0
4.0104e-05 7.0209e-09 0
3.0834e-05 4.9704e-10 0
3.3803e-05 2.4112e-09 0
2.5003e-05 1.1074e-10 0
2.7869e-05 7.0443e-10 0
1.8122e-05 1.5551e-10 0
2.2046e-05 2.5502e-10 0
1.0204e-05 -1.0522e-10 0
1.3967e-05 2.4362e-11 0
4.5786e-06 -1.5907e-11 0
6.719e-06 -3.6962e-11 0
1.6662e-06 9.0005e-11 0
2.6831e-06 7.3929e-11 0
4.9116e-07 -1.6764e-10 0
8.0923e-07 -5.9473e-11 0
1.3409e-07 1.6236e-10 0
2.4569e-07 -2.8202e-12 0
2.4134e-08 2.2592e-10 0
3.7767e-08 1.1685e-10 0
8.0617e-09 -3.4065e-10 0
2.0896e-08 -1.1704e-10 0
-7.2592e-10 -1.1959e-10 0
-5.3876e-09 -2.8245e-11 0
1.6783e-09 3.1286e-10 0
3.0784e-09 6.9187e-11 0
0.00012868 2.5785e-07 0
0.0001308 1.9067e-07 0
0.00013332 2.6522e-07 0
0.00012342 3.0509e-07 0
0.00012607 2.152e-07 0
0.00011843 3.9986e-07 0
0.00012136 3.1378e-07 0
0.00011385 5.2443e-07 0
0.00011624 4.6691e-07 0
0.00010849 6.5787e-07 0
0.00011114 6.5243e-07 0
0.00010338 7.8295e-07 0
0.00010608 8.3425e-07 0
9.824e-05 8.7496e-07 0
0.00010084 9.8255e-07 0
9.2803e-05 9.0702e-07 0
9.5562e-05 1.0798e-06 0
8.7628e-05 8.681e-07 0
9.0183e-05 1.1106e-06 0
8.2157e-05 7.6464e-07 0
8.4858e-05 1.0629e-06 0
7.6803e-05 6.1539e-07 0
7.9394e-05 9.3888e-07 0
7.1443e-05 4.4909e-07 0
7.4043e-05 7.5901e-07 0
6.5807e-05 2.9514e-07 0
6.8554e-05 5.5668e-07 0
6.0457e-05 1.734e-07 0
6.3072e-05 3.6729e-07 0
5.4579e-05 9.0998e-08 0
5.7487e-05 2.1644e-07 0
4.8979e-05 4.2672e-08 0
5.1779e-05 1.134e-07 0
4.3026e-05 1.7491e-08 0
4.5966e-05 5.2661e-08 0
3.6966e-05 6.374e-09 0
4.0092e-05 2.157e-08 0
3.0833e-05 2.2742e-09 0
3.3799e-05 7.8511e-09 0
2.5003e-05 6.1085e-10 0
2.7868e-05 2.5825e-09 0
1.8122e-05 4.8816e-11 0
2.2045e-05 6.981e-10 0
1.0204e-05 1.0326e-10 0
1.3967e-05 1.6379e-10 0
4.5785e-06 6.4652e-11 0
6.719e-06 8.5192e-11 0
1.6663e-06 -2.321e-10 0
2.6825e-06 -3.6362e-11 0
4.9122e-07 9.1458e-11 0
8.0996e-07 -2.1206e-11 0
1.3398e-07 3.6058e-10 0
2.4564e-07 1.032e-10 0
2.4147e-08 -3.9962e-10 0
3.6958e-08 -8.3725e-11 0
8.1163e-09 -1.4642e-10 0
2.1385e-08 -4.3144e-11 0
-7.5267e-10 3.1579e-10 0
-4.8487e-09 1.3186e-10 0
1.6734e-09 -1.0276e-10 0
2.5938e-09 -8.5494e-11 0
0.00012879 1.072e-07 0
0.00013091 -1.6021e-08 0
0.00013339 1.4507e-07 0
0.00012358 1.8905e-07 0
0.00012624 4.0324e-09 0
0.00011863 3.5828e-07 0
0.00012159 1.685e-07 0
0.00011406 5.8771e-07 0
0.00011651 4.3038e-07 0
0.00010868 8.3531e-07 0
0.00011141 7.4285e-07 0
0.00010353 1.0532e-06 0
0.00010631 1.0607e-06 0
9.8337e-05 1.2189e-06 0
0.00010101 1.332e-06 0
9.2834e-05 1.3231e-06 0
9.5668e-05 1.5194e-06 0
8.7583e-05 1.3475e-06 0
9.0207e-05 1.6122e-06 0
8.2035e-05 1.2766e-06 0
8.4786e-05 1.6094e-06 0
7.6623e-05 1.1136e-06 0
7.9232e-05 1.5072e-06 0
7.124e-05 8.8451e-07 0
7.3815e-05 1.3092e-06 0
6.5615e-05 6.331e-07 0
6.8301e-05 1.0403e-06 0
6.0304e-05 4.0488e-07 0
6.2842e-05 7.4623e-07 0
5.4474e-05 2.293e-07 0
5.731e-05 4.7788e-07 0
4.8917e-05 1.149e-07 0
5.1662e-05 2.7092e-07 0
4.2995e-05 5.1132e-08 0
4.5902e-05 1.3537e-07 0
3.6952e-05 1.9618e-08 0
4.0061e-05 5.9423e-08 0
3.0827e-05 6.7416e-09 0
3.3785e-05 2.2874e-08 0
2.5001e-05 2.4753e-09 0
2.7864e-05 7.879e-09 0
1.8121e-05 3.5661e-10 0
2.2043e-05 2.3367e-09 0
1.0204e-05 9.9379e-12 0
1.3965e-05 5.3743e-10 0
4.5785e-06 2.9862e-10 0
6.7195e-06 2.5919e-10 0
1.6662e-06 -2.8011e-10 0
2.6829e-06 -1.6085e-11 0
4.9123e-07 1.3083e-10 0
8.0896e-07 -3.4644e-11 0
1.3397e-07 1.9939e-10 0
2.463e-07 1.0065e-10 0
2.4081e-08 -5.8034e-10 0
3.6864e-08 -1.4178e-10 0
8.2523e-09 3.5869e-10 0
2.0841e-08 7.5649e-11 0
-7.1105e-10 4.1669e-10 0
-3.3745e-09 1.149e-10 0
1.5397e-09 -6.0412e-10 0
1.5305e-09 -1.2926e-10 0
0.00012898 -1.9613e-07 0
0.00013113 -4.138e-07 0
0.00013352 -1.1314e-07 0
0.00012384 -8.4063e-08 0
0.00012654 -4.2554e-07 0
0.00011896 1.9465e-07 0
0.00012198 -1.7191e-07 0
0.00011443 5.6973e-07 0
0.00011697 2.7174e-07 0
0.00010903 9.8483e-07 0
0.00011188 7.9332e-07 0
0.00010381 1.3768e-06 0
0.00010673 1.3051e-06 0
9.8527e-05 1.6774e-06 0
0.00010132 1.7493e-06 0
9.2925e-05 1.8573e-06 0
9.5853e-05 2.0773e-06 0
8.7578e-05 1.9269e-06 0
9.0279e-05 2.2581e-06 0
8.1933e-05 1.8941e-06 0
8.4753e-05 2.2948e-06 0
7.6426e-05 1.7521e-06 0
7.9088e-05 2.2074e-06 0
7.0971e-05 1.5012e-06 0
7.3563e-05 2.0074e-06 0
6.532e-05 1.1696e-06 0
6.7969e-05 1.7023e-06 0
6.0033e-05 8.1602e-07 0
6.2486e-05 1.3206e-06 0
5.4265e-05 5.0449e-07 0
5.6995e-05 9.2025e-07 0
4.878e-05 2.7369e-07 0
5.143e-05 5.6782e-07 0
4.2918e-05 1.3005e-07 0
4.5756e-05 3.0724e-07 0
3.6916e-05 5.4485e-08 0
3.9984e-05 1.4517e-07 0
3.0812e-05 1.9742e-08 0
3.375e-05 5.9924e-08 0
2.4996e-05 6.3417e-09 0
2.785e-05 2.157e-08 0
1.8119e-05 1.9535e-09 0
2.2039e-05 6.7842e-09 0
1.0203e-05 3.015e-10 0
1.3964e-05 1.9445e-09 0
4.5785e-06 1.1805e-10 0
6.719e-06 4.8814e-10 0
1.6662e-06 2.5529e-10 0
2.6839e-06 9.3465e-11 0
4.9109e-07 -1.2869e-10 0
8.0788e-07 4.6607e-11 0
1.3405e-07 -3.4277e-10 0
2.4606e-07 -1.0788e-10 0
2.4136e-08 3.6095e-10 0
3.8029e-08 3.4264e-11 0
8.2198e-09 2.9027e-10 0
2.022e-08 1.4907e-10 0
-7.0363e-10 -2.5954e-10 0
-3.5723e-09 -1.7131e-10 0
1.6049e-09 6.5497e-12 0
1.6457e-09 6.8055e-11 0
0.00012935 -7.643e-07 0
0.00013158 -1.0788e-06 0
0.0001338 -5.447e-07 0
0.00012433 -6.2145e-07 0
0.00012714 -1.1643e-06 0
0.00011954 -1.5902e-07 0
0.00012271 -7.643e-07 0
0.00011502 4.7207e-07 0
0.00011773 -4.6995e-08 0
0.00010958 1.1259e-06 0
0.00011261 7.9734e-07 0
0.00010428 1.7277e-06 0
0.00010737 1.6073e-06 0
9.8868e-05 2.2256e-06 0
0.00010183 2.2833e-06 0
9.3111e-05 2.5579e-06 0
9.6187e-05 2.7825e-06 0
8.7613e-05 2.6963e-06 0
9.0418e-05 3.0849e-06 0
8.1842e-05 2.6712e-06 0
8.4728e-05 3.1809e-06 0
7.6225e-05 2.5233e-06 0
7.8939e-05 3.0922e-06 0
7.0665e-05 2.2632e-06 0
7.3301e-05 2.8625e-06 0
6.4937e-05 1.8908e-06 0
6.7594e-05 2.5201e-06 0
5.963e-05 1.4346e-06 0
6.2029e-05 2.0763e-06 0
5.391e-05 9.6814e-07 0
5.6526e-05 1.5622e-06 0
4.8517e-05 5.7364e-07 0
5.1032e-05 1.0488e-06 0
4.2755e-05 2.951e-07 0
4.5476e-05 6.1752e-07 0
3.683e-05 1.3197e-07 0
3.9819e-05 3.1575e-07 0
3.0774e-05 5.2104e-08 0
3.367e-05 1.3998e-07 0
2.4981e-05 1.7093e-08 0
2.7816e-05 5.3744e-08 0
1.8114e-05 5.023e-09 0
2.2026e-05 1.7805e-08 0
1.0202e-05 2.0228e-09 0
1.3961e-05 5.4454e-09 0
4.5781e-06 -6.0416e-11 0
6.7181e-06 1.3669e-09 0
1.6661e-06 1.8734e-10 0
2.6828e-06 1.9041e-10 0
4.9104e-07 5.8432e-11 0
8.0843e-07 1.7787e-10 0
1.3405e-07 -7.1317e-10 0
2.4571e-07 -1.4386e-10 0
2.423e-08 9.8163e-10 0
3.818e-08 1.1627e-10 0
8.1108e-09 -2.1039e-10 0
2.0776e-08 9.0177e-11 0
-7.6798e-10 -9.1941e-10 0
-5.0907e-09 -2.4346e-10 0
1.6507e-09 9.5825e-10 0
2.7537e-09 1.9016e-10 0
0.00013013 -1.7161e-06 0
0.00013261 -2.2516e-06 0
0.00013442 -1.2011e-06 0
0.00012529 -1.4854e-06 0
0.00012839 -2.3629e-06 0
0.00012055 -7.3439e-07 0
0.000124 -1.6234e-06 0
0.000116 2.863e-07 0
0.00011897 -4.5933e-07 0
0.00011044 1.3384e-06 0
0.00011371 8.2996e-07 0
0.00010497 2.2404e-06 0
0.00010828 2.0372e-06 0
9.9371e-05 2.9335e-06 0
0.00010252 3.0263e-06 0
9.3417e-05 3.4207e-06 0
9.667e-05 3.7294e-06 0
8.7711e-05 3.679e-06 0
9.067e-05 4.1461e-06 0
8.1751e-05 3.6891e-06 0
8.4735e-05 4.3027e-06 0
7.5991e-05 3.4988e-06 0
7.8746e-05 4.2186e-06 0
7.0321e-05 3.1799e-06 0
7.2979e-05 3.9327e-06 0
6.4492e-05 2.7602e-06 0
6.7172e-05 3.509e-06 0
5.9114e-05 2.237e-06 0
6.1503e-05 2.9887e-06 0
5.3393e-05 1.64e-06 0
5.5927e-05 2.3829e-06 0
4.8083e-05 1.0599e-06 0
5.0449e-05 1.7262e-06 0
4.2451e-05 5.9513e-07 0
4.5008e-05 1.1052e-06 0
3.6653e-05 2.876e-07 0
3.9511e-05 6.1402e-07 0
3.0688e-05 1.2014e-07 0
3.3502e-05 2.9348e-07 0
2.4945e-05 4.3523e-08 0
2.7741e-05 1.2055e-07 0
1.8102e-05 1.32e-08 0
2.1996e-05 4.279e-08 0
1.0198e-05 4.3495e-09 0
1.3951e-05 1.332e-08 0
4.5771e-06 9.8936e-10 0
6.7162e-06 3.5576e-09 0
1.6657e-06 -5.0154e-10 0
2.6803e-06 7.7624e-10 0
4.9113e-07 3.4967e-10 0
8.0937e-07 1.855e-10 0
1.3405e-07 1.791e-10 0
2.4645e-07 9.6185e-11 0
2.4158e-08 -4.5437e-11 0
3.6662e-08 6.1675e-11 0
8.1472e-09 -1.455e-10 0
2.183e-08 -1.7728e-10 0
-7.5746e-10 -4.7217e-11 0
-5.5263e-09 1.2919e-10 0
1.3701e-09 3.5708e-10 0
3.1011e-09 -1.5795e-11 0
0.00013179 -3.3229e-06 0
0.00013464 -4.421e-06 0
0.00013584 -2.4759e-06 0
0.0001269 -2.7087e-06 0
0.00013029 -4.0207e-06 0
0.000122 -1.4217e-06 0
0.00012557 -2.6227e-06 0
0.00011725 9.6268e-08 0
0.00012022 -8.6708e-07 0
0.00011152 1.6217e-06 0
0.00011475 9.4628e-07 0
0.00010586 2.9693e-06 0
0.00010918 2.6243e-06 0
0.00010001 3.9699e-06 0
0.00010325 4.0081e-06 0
9.3801e-05 4.5877e-06 0
9.7162e-05 4.9931e-06 0
8.7857e-05 4.9032e-06 0
9.0937e-05 5.5468e-06 0
8.1664e-05 4.9576e-06 0
8.4769e-05 5.7251e-06 0
7.5701e-05 4.7447e-06 0
7.8526e-05 5.613e-06 0
6.9892e-05 4.323e-06 0
7.2553e-05 5.2612e-06 0
6.397e-05 3.7906e-06 0
6.6636e-05 4.7211e-06 0
5.8507e-05 3.1837e-06 0
6.0894e-05 4.0702e-06 0
5.2733e-05 2.4913e-06 0
5.5232e-05 3.3532e-06 0
4.7458e-05 1.7482e-06 0
4.9703e-05 2.5757e-06 0
4.1957e-05 1.0692e-06 0
4.4325e-05 1.7799e-06 0
3.6332e-05 5.626e-07 0
3.9001e-05 1.0737e-06 0
3.0516e-05 2.5179e-07 0
3.3192e-05 5.554e-07 0
2.4868e-05 9.6808e-08 0
2.7586e-05 2.4487e-07 0
1.8073e-05 3.3197e-08 0
2.1933e-05 9.2795e-08 0
1.0189e-05 8.8827e-09 0
1.3929e-05 3.0257e-08 0
4.5744e-06 2.4901e-09 0
6.7091e-06 8.3135e-09 0
1.6651e-06 5.0073e-10 0
2.6788e-06 2.2789e-09 0
4.9104e-07 -1.6116e-10 0
8.0921e-07 3.9591e-10 0
1.3405e-07 1.2274e-09 0
2.4664e-07 1.766e-10 0
2.4028e-08 -1.1755e-09 0
3.5808e-08 5.7295e-11 0
8.2041e-09 -5.3562e-11 0
2.1957e-08 -3.2296e-10 0
-6.8382e-10 1.2924e-09 0
-4.7769e-09 3.5473e-10 0
1.3058e-09 -1.4406e-09 0
2.2793e-09 -2.0511e-10 0
0.0001336 -5.5707e-06 0
0.0001358 -7.6797e-06 0
0.00013769 -5.6254e-06 0
0.00012819 -4.0157e-06 0
0.00013088 -5.6991e-06 0
0.00012282 -2.0394e-06 0
0.00012562 -3.4447e-06 0
0.00011779 3.3595e-08 0
0.00011993 -1.1209e-06 0
0.00011195 2.0052e-06 0
0.00011432 1.1255e-06 0
0.00010628 3.7704e-06 0
0.00010883 3.2087e-06 0
0.00010042 5.2068e-06 0
0.00010313 5.0201e-06 0
9.4082e-05 6.1356e-06 0
9.7188e-05 6.4083e-06 0
8.7932e-05 6.5179e-06 0
9.0927e-05 7.244e-06 0
8.1521e-05 6.5162e-06 0
8.4637e-05 7.5101e-06 0
7.534e-05 6.2543e-06 0
7.8224e-05 7.3294e-06 0
6.9346e-05 5.7417e-06 0
7.2028e-05 6.8604e-06 0
6.3314e-05 5.0452e-06 0
6.5933e-05 6.1837e-06 0
5.7789e-05 4.2805e-06 0
6.0125e-05 5.3611e-06 0
5.1954e-05 3.4769e-06 0
5.4427e-05 4.4748e-06 0
4.6658e-05 2.6096e-06 0
4.8833e-05 3.5613e-06 0
4.1246e-05 1.7325e-06 0
4.3444e-05 2.617e-06 0
3.5812e-05 9.8925e-07 0
3.8253e-05 1.7045e-06 0
3.0206e-05 4.7984e-07 0
3.2681e-05 9.5416e-07 0
2.4717e-05 1.9677e-07 0
2.7304e-05 4.531e-07 0
1.8011e-05 7.0969e-08 0
2.1807e-05 1.8295e-07 0
1.0167e-05 2.1018e-08 0
1.3882e-05 6.2905e-08 0
4.568e-06 4.5832e-09 0
6.692e-06 1.8463e-08 0
1.6637e-06 2.7326e-09 0
2.6767e-06 5.0155e-09 0
4.906e-07 -3.6633e-10 0
8.0768e-07 1.1329e-09 0
1.3389e-07 1.7694e-10 0
2.4516e-07 1.8958e-10 0
2.4079e-08 -2.8761e-10 0
3.741e-08 -1.2445e-11 0
8.1666e-09 -4.2285e-10 0
2.0757e-08 1.2232e-12 0
-7.1013e-10 8.6368e-10 0
-3.9437e-09 2.479e-11 0
1.9088e-09 -1.1133e-09 0
1.6074e-09 -3.6244e-11 0
0.00013236 -7.9381e-06 0
0.00013205 -1.1241e-05 0
0.00013661 -1.1268e-05 0
0.00012681 -5.1787e-06 0
0.0001276 -7.5238e-06 0
0.0001213 -2.5085e-06 0
0.00012263 -4.2614e-06 0
0.00011616 3.7671e-08 0
0.00011703 -1.3189e-06 0
0.00011033 2.3856e-06 0
0.00011144 1.3079e-06 0
0.0001049 4.4759e-06 0
0.00010605 3.6375e-06 0
9.9471e-05 6.2714e-06 0
0.00010073 5.7125e-06 0
9.3542e-05 7.6653e-06 0
9.5494e-05 7.5016e-06 0
8.7571e-05 8.4157e-06 0
8.9873e-05 8.8158e-06 0
8.1125e-05 8.4597e-06 0
8.3899e-05 9.4423e-06 0
7.4813e-05 8.0537e-06 0
7.757e-05 9.3492e-06 0
6.8653e-05 7.4106e-06 0
7.1321e-05 8.7516e-06 0
6.2483e-05 6.5574e-06 0
6.5064e-05 7.8891e-06 0
5.6899e-05 5.5755e-06 0
5.9135e-05 6.8744e-06 0
5.1041e-05 4.5874e-06 0
5.3434e-05 5.7738e-06 0
4.571e-05 3.593e-06 0
4.7839e-05 4.6699e-06 0
4.0327e-05 2.5607e-06 0
4.2408e-05 3.5755e-06 0
3.5058e-05 1.5835e-06 0
3.7271e-05 2.4858e-06 0
2.9705e-05 8.2972e-07 0
3.1923e-05 1.501e-06 0
2.4449e-05 3.6794e-07 0
2.6841e-05 7.6737e-07 0
1.7893e-05 1.3724e-07 0
2.158e-05 3.3086e-07 0
1.0124e-05 4.4095e-08 0
1.3791e-05 1.2006e-07 0
4.5546e-06 1.1653e-08 0
6.6603e-06 3.7653e-08 0
1.6601e-06 3.5839e-09 0
2.6694e-06 1.0259e-08 0
4.8974e-07 1.0391e-09 0
8.049e-07 2.3486e-09 0
1.3365e-07 -1.2631e-09 0
2.4347e-07 5.9846e-10 0
2.4188e-08 1.2276e-09 0
3.9983e-08 -1.5925e-10 0
8.1297e-09 -1.2501e-10 0
1.8549e-08 3.3323e-10 0
-7.9285e-10 -8.372e-10 0
-3.0169e-09 -3.0081e-10 0
2.213e-09 1.7553e-09 0
1.7894e-09 1.6939e-10 0
0.00012748 -1.0725e-05 0
0.00012625 -1.4828e-05 0
0.00013116 -1.5817e-05 0
0.00012241 -6.5794e-06 0
0.00012203 -9.6258e-06 0
0.00011722 -3.0415e-06 0
0.00011741 -5.3163e-06 0
0.00011228 -6.9994e-11 0
0.00011213 -1.6537e-06 0
0.00010653 2.6465e-06 0
0.00010677 1.4512e-06 0
0.0001012 4.9402e-06 0
0.00010146 4.0275e-06 0
9.6143e-05 6.9211e-06 0
9.6133e-05 6.153e-06 0
9.097e-05 8.6359e-06 0
9.1234e-05 8.0111e-06 0
8.585e-05 9.9505e-06 0
8.655e-05 9.6695e-06 0
7.9966e-05 1.0485e-05 0
8.1647e-05 1.089e-05 0
7.3863e-05 1.0149e-05 0
7.6016e-05 1.1294e-05 0
6.7703e-05 9.3189e-06 0
7.0109e-05 1.0831e-05 0
6.1443e-05 8.2863e-06 0
6.3938e-05 9.8172e-06 0
5.5788e-05 7.0929e-06 0
5.7921e-05 8.5809e-06 0
4.9937e-05 5.8516e-06 0
5.2183e-05 7.2538e-06 0
4.4616e-05 4.6712e-06 0
4.6656e-05 5.9119e-06 0
3.9231e-05 3.5018e-06 0
4.1239e-05 4.627e-06 0
3.4066e-05 2.3307e-06 0
3.6095e-05 3.3756e-06 0
2.897e-05 1.3173e-06 0
3.0905e-05 2.1835e-06 0
2.4014e-05 6.2725e-07 0
2.6148e-05 1.1986e-06 0
1.7686e-05 2.4867e-07 0
2.1206e-05 5.5162e-07 0
1.0043e-05 8.2423e-08 0
1.3628e-05 2.123e-07 0
4.5282e-06 2.647e-08 0
6.605e-06 6.9925e-08 0
1.6526e-06 4.9043e-09 0
2.6508e-06 1.9751e-08 0
4.8795e-07 2.2152e-09 0
8.0046e-07 4.5775e-09 0
1.3333e-07 -1.9522e-10 0
2.4278e-07 1.239e-09 0
2.4053e-08 1.1687e-10 0
3.9952e-08 5.0875e-12 0
8.1346e-09 5.7952e-10 0
1.7626e-08 1.6415e-10 0
-7.9393e-10 -1.7417e-09 0
-2.473e-09 -1.1255e-10 0
1.5316e-09 2.2192e-09 0
2.0647e-09 1.1919e-10 0
0.00012138 -1.3356e-05 0
0.00011999 -1.7614e-05 0
0.00012561 -1.926e-05 0
0.00011638 -8.1529e-06 0
0.00011552 -1.1552e-05 0
0.00011137 -3.7489e-06 0
0.00011078 -6.3224e-06 0
0.00010665 -7.527e-08 0
0.00010558 -2.0246e-06 0
0.00010119 2.9223e-06 0
0.00010048 1.4858e-06 0
9.6019e-05 5.3595e-06 0
9.5569e-05 4.3822e-06 0
9.0982e-05 7.3402e-06 0
9.0503e-05 6.6596e-06 0
8.6065e-05 9.0077e-06 0
8.5503e-05 8.3942e-06 0
8.1799e-05 1.0558e-05 0
8.0925e-05 9.8661e-06 0
7.7079e-05 1.1786e-05 0
7.6957e-05 1.1318e-05 0
7.1892e-05 1.2096e-05 0
7.2657e-05 1.242e-05 0
6.6195e-05 1.1384e-05 0
6.7771e-05 1.26e-05 0
6.0083e-05 1.0171e-05 0
6.2205e-05 1.1794e-05 0
5.4423e-05 8.7836e-06 0
5.6409e-05 1.0417e-05 0
4.8586e-05 7.2896e-06 0
5.066e-05 8.8713e-06 0
4.3335e-05 5.8487e-06 0
4.5204e-05 7.284e-06 0
3.7979e-05 4.5124e-06 0
3.9902e-05 5.7658e-06 0
3.2863e-05 3.1867e-06 0
3.4769e-05 4.3336e-06 0
2.7979e-05 1.9389e-06 0
2.9649e-05 2.9666e-06 0
2.3369e-05 9.8509e-07 0
2.5188e-05 1.7423e-06 0
1.7352e-05 4.1714e-07 0
2.0642e-05 8.5335e-07 0
9.9035e-06 1.4658e-07 0
1.3361e-05 3.4895e-07 0
4.4798e-06 4.7419e-08 0
6.5089e-06 1.1987e-07 0
1.6382e-06 1.0588e-08 0
2.6162e-06 3.5132e-08 0
4.8433e-07 2.1834e-09 0
7.9189e-07 8.8028e-09 0
1.3263e-07 2.0425e-09 0
2.4349e-07 2.0174e-09 0
2.378e-08 -1.8244e-09 0
3.5599e-08 4.0941e-10 0
8.1596e-09 1.0848e-09 0
2.1062e-08 -2.8607e-11 0
-7.2982e-10 -1.6093e-10 0
-4.2658e-09 8.4682e-11 0
8.6157e-10 -2.0997e-10 0
2.4469e-09 5.5179e-11 0
0.00011426 -1.5515e-05 0
0.00011194 -2.0187e-05 0
0.00011834 -2.2876e-05 0
0.00010904 -9.3825e-06 0
0.00010744 -1.3015e-05 0
0.00010409 -4.3677e-06 0
0.00010285 -7.1631e-06 0
9.9494e-05 -2.571e-07 0
9.7748e-05 -2.3118e-06 0
9.425e-05 3.0854e-06 0
9.2713e-05 1.526e-06 0
8.9494e-05 5.7436e-06 0
8.7969e-05 4.5182e-06 0
8.4845e-05 7.8161e-06 0
8.3458e-05 6.9545e-06 0
7.9964e-05 9.3436e-06 0
7.9063e-05 8.8283e-06 0
7.5793e-05 1.0567e-05 0
7.449e-05 1.0108e-05 0
7.186e-05 1.1897e-05 0
7.0437e-05 1.1138e-05 0
6.8003e-05 1.3014e-05 0
6.6952e-05 1.2353e-05 0
6.349e-05 1.308e-05 0
6.3488e-05 1.3286e-05 0
5.8076e-05 1.2049e-05 0
5.9183e-05 1.325e-05 0
5.2703e-05 1.0539e-05 0
5.4235e-05 1.2148e-05 0
4.6951e-05 8.8562e-06 0
4.8809e-05 1.0524e-05 0
4.181e-05 7.1396e-06 0
4.3443e-05 8.7359e-06 0
3.6554e-05 5.5719e-06 0
3.8323e-05 6.9837e-06 0
3.1486e-05 4.1026e-06 0
3.3302e-05 5.338e-06 0
2.6744e-05 2.6632e-06 0
2.8205e-05 3.8046e-06 0
2.2481e-05 1.4442e-06 0
2.3959e-05 2.3778e-06 0
1.6852e-05 6.4804e-07 0
1.9849e-05 1.2342e-06 0
9.6792e-06 2.444e-07 0
1.2959e-05 5.3497e-07 0
4.3979e-06 7.6359e-08 0
6.3473e-06 1.9141e-07 0
1.6129e-06 2.0853e-08 0
2.5628e-06 5.8459e-08 0
4.7784e-07 4.3051e-09 0
7.7543e-07 1.5409e-08 0
1.3109e-07 2.1853e-09 0
2.4376e-07 3.4532e-09 0
2.3535e-08 -9.0838e-10 0
2.936e-08 6.4218e-10 0
8.0511e-09 5.7499e-10 0
2.662e-08 2.6911e-10 0
-6.2592e-10 1.1335e-09 0
-8.2349e-09 -1.2468e-10 0
1.2038e-09 -2.1291e-09 0
3.3652e-09 1.2673e-10 0
0.0001057 -1.7283e-05 0
0.00010315 -2.2098e-05 0
0.00010994 -2.5382e-05 0
0.00010059 -1.0412e-05 0
9.8465e-05 -1.4129e-05 0
9.5563e-05 -4.7136e-06 0
9.3636e-05 -7.4921e-06 0
9.1111e-05 -2.7154e-07 0
8.8675e-05 -2.4515e-06 0
8.6073e-05 3.1695e-06 0
8.3976e-05 1.6448e-06 0
8.1506e-05 5.8621e-06 0
7.9467e-05 4.6967e-06 0
7.7329e-05 7.9852e-06 0
7.4998e-05 6.9937e-06 0
7.3084e-05 9.6624e-06 0
7.1101e-05 8.8105e-06 0
6.9085e-05 1.0722e-05 0
6.7394e-05 1.0273e-05 0
6.5155e-05 1.1502e-05 0
6.3553e-05 1.1106e-05 0
6.1952e-05 1.2609e-05 0
5.9912e-05 1.178e-05 0
5.8805e-05 1.3545e-05 0
5.7111e-05 1.2719e-05 0
5.475e-05 1.3353e-05 0
5.416e-05 1.3454e-05 0
5.0283e-05 1.2116e-05 0
5.0663e-05 1.3173e-05 0
4.4925e-05 1.0409e-05 0
4.6273e-05 1.1918e-05 0
3.9992e-05 8.5122e-06 0
4.1311e-05 1.0136e-05 0
3.491e-05 6.6776e-06 0
3.6428e-05 8.2248e-06 0
2.9951e-05 5.0379e-06 0
3.1649e-05 6.3783e-06 0
2.5298e-05 3.4479e-06 0
2.6616e-05 4.657e-06 0
2.1335e-05 1.9894e-06 0
2.2487e-05 3.0705e-06 0
1.6157e-05 9.4387e-07 0
1.8802e-05 1.6832e-06 0
9.3429e-06 3.7492e-07 0
1.2395e-05 7.6797e-07 0
4.2693e-06 1.2008e-07 0
6.0986e-06 2.8733e-07 0
1.5711e-06 3.4707e-08 0
2.4829e-06 9.0784e-08 0
4.6688e-07 9.5785e-09 0
7.4896e-07 2.4956e-08 0
1.2822e-07 7.8697e-11 0
2.3846e-07 5.5024e-09 0
2.3188e-08 1.694e-09 0
2.7024e-08 1.1918e-09 0
7.7887e-09 -7.8666e-10 0
2.8013e-08 4.2935e-10 0
-5.4128e-10 4.5377e-10 0
-1.0015e-08 -1.3681e-10 0
1.8354e-09 -1.0582e-09 0
3.9232e-09 2.5917e-11 0
9.6023e-05 -1.8355e-05 0
9.2902e-05 -2.3259e-05 0
0.00010075 -2.7645e-05 0
9.0821e-05 -1.0836e-05 0
8.8172e-05 -1.471e-05 0
8.593e-05 -4.9165e-06 0
8.3432e-05 -7.6194e-06 0
8.1577e-05 -1.5988e-07 0
7.8359e-05 -2.1651e-06 0
7.6756e-05 3.371e-06 0
7.3761e-05 1.8095e-06 0
7.2651e-05 6.0173e-06 0
6.9841e-05 4.8056e-06 0
6.8647e-05 7.9009e-06 0
6.5984e-05 7.0431e-06 0
6.4873e-05 9.4127e-06 0
6.22e-05 8.5841e-06 0
6.1642e-05 1.0695e-05 0
5.886e-05 9.8094e-06 0
5.8078e-05 1.1337e-05 0
5.5986e-05 1.0836e-05 0
5.4861e-05 1.1798e-05 0
5.2741e-05 1.1358e-05 0
5.2234e-05 1.2678e-05 0
4.9869e-05 1.1759e-05 0
4.9451e-05 1.3319e-05 0
4.7383e-05 1.2444e-05 0
4.6477e-05 1.2922e-05 0
4.5082e-05 1.2865e-05 0
4.2147e-05 1.1621e-05 0
4.2286e-05 1.2436e-05 0
3.7754e-05 9.8104e-06 0
3.8451e-05 1.1141e-05 0
3.2989e-05 7.8061e-06 0
3.4106e-05 9.3242e-06 0
2.8232e-05 5.9632e-06 0
2.9716e-05 7.4022e-06 0
2.3685e-05 4.2499e-06 0
2.489e-05 5.4984e-06 0
1.9941e-05 2.5916e-06 0
2.082e-05 3.7741e-06 0
1.5243e-05 1.2972e-06 0
1.7493e-05 2.1832e-06 0
8.8714e-06 5.3607e-07 0
1.1643e-05 1.0371e-06 0
4.0788e-06 1.8115e-07 0
5.7495e-06 4.0831e-07 0
1.5072e-06 5.3166e-08 0
2.3613e-06 1.3113e-07 0
4.4889e-07 1.4741e-08 0
7.1218e-07 3.8352e-08 0
1.2395e-07 -6.3596e-11 0
2.2476e-07 7.7034e-09 0
2.228e-08 3.4928e-09 0
3.0889e-08 2.7025e-09 0
7.6511e-09 -1.3588e-09 0
2.2294e-08 -1.6814e-10 0
-6.5506e-10 1.5274e-10 0
-6.8671e-09 4.9342e-10 0
1.6981e-09 9.2365e-10 0
3.3499e-09 -4.057e-10 0
8.5357e-05 -1.8908e-05 0
8.1777e-05 -2.3836e-05 0
9.002e-05 -2.9007e-05 0
7.9853e-05 -1.0691e-05 0
7.6678e-05 -1.4204e-05 0
7.4873e-05 -4.5154e-06 0
7.1908e-05 -7.29e-06 0
7.1021e-05 2.6808e-08 0
6.7251e-05 -1.856e-06 0
6.6387e-05 3.4579e-06 0
6.2898e-05 2.0681e-06 0
6.2704e-05 5.9424e-06 0
5.9067e-05 4.8253e-06 0
5.9366e-05 7.8305e-06 0
5.5775e-05 6.7212e-06 0
5.5877e-05 8.9694e-06 0
5.2879e-05 8.2473e-06 0
5.3054e-05 9.9651e-06 0
4.9814e-05 9.1576e-06 0
5.0259e-05 1.0824e-05 0
4.7239e-05 9.8979e-06 0
4.7572e-05 1.1187e-05 0
4.4863e-05 1.054e-05 0
4.5027e-05 1.1495e-05 0
4.2531e-05 1.0864e-05 0
4.2581e-05 1.2069e-05 0
4.0188e-05 1.1144e-05 0
4.0772e-05 1.2352e-05 0
3.8095e-05 1.1479e-05 0
3.7942e-05 1.1873e-05 0
3.6355e-05 1.1595e-05 0
3.4686e-05 1.0635e-05 0
3.4118e-05 1.1137e-05 0
3.0628e-05 8.8011e-06 0
3.0969e-05 9.8866e-06 0
2.6255e-05 6.8384e-06 0
2.7309e-05 8.2144e-06 0
2.1915e-05 5.0225e-06 0
2.2952e-05 6.2771e-06 0
1.8329e-05 3.2173e-06 0
1.8997e-05 4.4379e-06 0
1.4097e-05 1.6883e-06 0
1.5933e-05 2.7058e-06 0
8.2511e-06 7.2561e-07 0
1.0687e-05 1.3288e-06 0
3.8106e-06 2.5575e-07 0
5.289e-06 5.4823e-07 0
1.4168e-06 7.7232e-08 0
2.1856e-06 1.7913e-07 0
4.2092e-07 1.9252e-08 0
6.6287e-07 5.4455e-08 0
1.1828e-07 3.5548e-09 0
2.0463e-07 1.098e-08 0
2.019e-08 2.868e-09 0
3.5198e-08 4.1877e-09 0
7.901e-09 -1.7304e-09 0
1.3976e-08 -5.925e-10 0
-1.1591e-09 8.5997e-10 0
-1.4319e-09 9.5545e-10 0
1.5191e-09 -2.3048e-10 0
1.4523e-09 -5.7013e-10 0
7.335e-05 -1.8421e-05 0
6.9155e-05 -2.3161e-05 0
7.8371e-05 -2.9539e-05 0
6.7878e-05 -1.0034e-05 0
6.3949e-05 -1.3191e-05 0
6.2869e-05 -3.7648e-06 0
5.9125e-05 -6.0065e-06 0
5.9077e-05 4.9336e-07 0
5.4635e-05 -1.179e-06 0
5.5262e-05 3.6019e-06 0
5.0973e-05 2.1228e-06 0
5.1902e-05 5.65e-06 0
4.7935e-05 4.6852e-06 0
4.9127e-05 7.232e-06 0
4.4976e-05 6.2375e-06 0
4.6387e-05 8.3907e-06 0
4.2537e-05 7.3312e-06 0
4.4046e-05 9.0552e-06 0
4.0392e-05 8.2564e-06 0
4.1587e-05 9.6374e-06 0
3.8262e-05 8.7599e-06 0
3.9542e-05 1.0099e-05 0
3.6223e-05 9.1506e-06 0
3.7673e-05 1.0367e-05 0
3.4445e-05 9.4564e-06 0
3.5403e-05 1.0593e-05 0
3.2832e-05 9.7565e-06 0
3.3828e-05 1.0777e-05 0
3.1042e-05 9.8895e-06 0
3.1988e-05 1.0748e-05 0
2.9354e-05 9.8667e-06 0
3.0131e-05 1.0346e-05 0
2.8006e-05 9.8183e-06 0
2.7366e-05 9.2164e-06 0
2.6321e-05 9.3265e-06 0
2.3808e-05 7.4938e-06 0
2.3961e-05 8.3605e-06 0
1.9916e-05 5.6916e-06 0
2.0544e-05 6.7825e-06 0
1.6526e-05 3.8201e-06 0
1.698e-05 4.9801e-06 0
1.2716e-05 2.0924e-06 0
1.4134e-05 3.1966e-06 0
7.474e-06 9.3325e-07 0
9.5204e-06 1.6276e-06 0
3.4544e-06 3.3942e-07 0
4.7089e-06 6.9325e-07 0
1.2946e-06 1.0533e-07 0
1.9511e-06 2.3482e-07 0
3.8148e-07 2.5589e-08 0
5.9659e-07 7.0347e-08 0
1.1007e-07 7.4041e-09 0
1.7986e-07 1.6665e-08 0
1.7255e-08 1.1994e-09 0
3.4908e-08 4.231e-09 0
8.1332e-09 -1.0697e-09 0
9.2518e-09 3.3139e-10 0
-1.7474e-09 2.0178e-09 0
1.6413e-09 3.7278e-10 0
1.8984e-09 -1.965e-09 0
-1.0213e-10 -7.1664e-11 0
6.0193e-05 -1.6918e-05 0
5.5216e-05 -2.1234e-05 0
6.5332e-05 -2.8848e-05 0
5.4165e-05 -8.5625e-06 0
4.9662e-05 -1.0915e-05 0
4.996e-05 -2.7964e-06 0
4.5156e-05 -4.5356e-06 0
4.6487e-05 1.0058e-06 0
4.1304e-05 -3.3688e-07 0
4.3145e-05 3.437e-06 0
3.8328e-05 2.4363e-06 0
4.0691e-05 5.2706e-06 0
3.5866e-05 4.0516e-06 0
3.8434e-05 6.3718e-06 0
3.3826e-05 5.4335e-06 0
3.6197e-05 7.2143e-06 0
3.2053e-05 6.2183e-06 0
3.4548e-05 7.8195e-06 0
3.0336e-05 6.7481e-06 0
3.2755e-05 8.2474e-06 0
2.8809e-05 7.1963e-06 0
3.0967e-05 8.4894e-06 0
2.7509e-05 7.5331e-06 0
2.9627e-05 8.6901e-06 0
2.6052e-05 7.6403e-06 0
2.804e-05 8.9497e-06 0
2.4702e-05 7.7912e-06 0
2.6772e-05 9.0617e-06 0
2.3748e-05 8.0443e-06 0
2.517e-05 8.8662e-06 0
2.2453e-05 7.9793e-06 0
2.4001e-05 8.7291e-06 0
2.119e-05 7.835e-06 0
2.2577e-05 8.4212e-06 0
2.0124e-05 7.5526e-06 0
2.0374e-05 7.4547e-06 0
1.9033e-05 7.2922e-06 0
1.7423e-05 6.0422e-06 0
1.7098e-05 6.5212e-06 0
1.4469e-05 4.2979e-06 0
1.4489e-05 5.1563e-06 0
1.1093e-05 2.4693e-06 0
1.2044e-05 3.5363e-06 0
6.5294e-06 1.1383e-06 0
8.1175e-06 1.8912e-06 0
3.0086e-06 4.2746e-07 0
4.0044e-06 8.2502e-07 0
1.1343e-06 1.3406e-07 0
1.655e-06 2.9263e-07 0
3.3145e-07 3.4614e-08 0
5.1046e-07 8.4801e-08 0
9.7293e-08 9.1141e-09 0
1.4974e-07 2.359e-08 0
1.4623e-08 1.0723e-09 0
3.1257e-08 3.5438e-09 0
7.3328e-09 2.3043e-10 0
7.3076e-09 1.8946e-09 0
-1.6399e-09 1.1953e-09 0
1.6183e-09 -5.5904e-10 0
2.3001e-09 -1.9292e-09 0
-5.1101e-10 5.6626e-10 0
4.5033e-05 -1.4041e-05 0
3.9553e-05 -1.7351e-05 0
5.0814e-05 -2.6467e-05 0
3.9622e-05 -6.2014e-06 0
3.3832e-05 -7.6215e-06 0
3.5736e-05 -1.5618e-06 0
3.0118e-05 -2.4068e-06 0
3.3133e-05 1.3013e-06 0
2.7178e-05 3.3924e-07 0
3.0689e-05 3.1003e-06 0
2.523e-05 2.1023e-06 0
2.8969e-05 4.3435e-06 0
2.3767e-05 3.1787e-06 0
2.7338e-05 5.0705e-06 0
2.2403e-05 4.1219e-06 0
2.5973e-05 5.7881e-06 0
2.1205e-05 4.5799e-06 0
2.4684e-05 6.0932e-06 0
2.0251e-05 4.897e-06 0
2.3441e-05 6.3161e-06 0
1.9278e-05 5.3e-06 0
2.2344e-05 6.6508e-06 0
1.8258e-05 5.313e-06 0
2.1318e-05 6.6814e-06 0
1.7534e-05 5.5162e-06 0
2.0125e-05 6.7299e-06 0
1.6636e-05 5.6095e-06 0
1.9399e-05 6.9764e-06 0
1.5841e-05 5.6332e-06 0
1.8353e-05 6.886e-06 0
1.5129e-05 5.6557e-06 0
1.7345e-05 6.5807e-06 0
1.4492e-05 5.7052e-06 0
1.642e-05 6.4342e-06 0
1.362e-05 5.3431e-06 0
1.54e-05 6.1454e-06 0
1.2771e-05 5.1348e-06 0
1.3858e-05 5.5643e-06 0
1.2053e-05 5.0222e-06 0
1.1855e-05 4.3758e-06 0
1.0899e-05 4.4549e-06 0
9.1334e-06 2.6998e-06 0
9.3522e-06 3.4171e-06 0
5.3832e-06 1.2992e-06 0
6.3611e-06 1.981e-06 0
2.4695e-06 5.0491e-07 0
3.1423e-06 8.9825e-07 0
9.3119e-07 1.6041e-07 0
1.2916e-06 3.3588e-07 0
2.712e-07 4.3409e-08 0
4.017e-07 9.6043e-08 0
7.9155e-08 1.0315e-08 0
1.1393e-07 2.9123e-08 0
1.2475e-08 1.7598e-09 0
2.6082e-08 3.595e-09 0
5.4114e-09 9.1281e-10 0
4.8547e-09 2.5672e-09 0
-7.695e-10 -6.7457e-10 0
1.2066e-09 -7.2422e-10 0
1.7659e-09 1.817e-12 0
-1.7985e-10 5.1209e-10 0
2.7992e-05 -9.2513e-06 0
2.0671e-05 -1.0044e-05 0
3.4286e-05 -2.2312e-05 0
2.348e-05 -3.3137e-06 0
1.6533e-05 -3.4166e-06 0
2.0868e-05 -4.5051e-07 0
1.4453e-05 -8.5422e-07 0
1.9594e-05 1.2096e-06 0
1.3214e-05 4.7644e-07 0
1.8116e-05 2.286e-06 0
1.2274e-05 1.3633e-06 0
1.7118e-05 2.9702e-06 0
1.1635e-05 1.9274e-06 0
1.6308e-05 3.4073e-06 0
1.1044e-05 2.2154e-06 0
1.5478e-05 3.7625e-06 0
1.0529e-05 2.5618e-06 0
1.4746e-05 3.9814e-06 0
1.005e-05 2.6667e-06 0
1.4092e-05 4.1193e-06 0
9.5752e-06 2.8083e-06 0
1.3457e-05 4.2415e-06 0
9.167e-06 2.8743e-06 0
1.2741e-05 4.2739e-06 0
8.7826e-06 2.9683e-06 0
1.2261e-05 4.3717e-06 0
8.2635e-06 2.9285e-06 0
1.1672e-05 4.3784e-06 0
8.0282e-06 3.0232e-06 0
1.1051e-05 4.3572e-06 0
7.6477e-06 3.0145e-06 0
1.0713e-05 4.3224e-06 0
7.1753e-06 2.9414e-06 0
1.0013e-05 4.1184e-06 0
7.0466e-06 2.9268e-06 0
9.3099e-06 3.832e-06 0
6.5848e-06 2.7654e-06 0
8.7805e-06 3.7989e-06 0
5.9399e-06 2.5978e-06 0
8.083e-06 3.5e-06 0
5.7389e-06 2.522e-06 0
6.4843e-06 2.4506e-06 0
5.4475e-06 2.3142e-06 0
3.8829e-06 1.2737e-06 0
3.8635e-06 1.5373e-06 0
1.7932e-06 5.2506e-07 0
1.9635e-06 7.5422e-07 0
6.743e-07 1.7298e-07 0
8.0948e-07 3.0396e-07 0
1.9834e-07 4.7915e-08 0
2.5559e-07 8.9864e-08 0
5.6135e-08 1.2106e-08 0
7.1198e-08 2.802e-08 0
9.9608e-09 1.6382e-09 0
1.7208e-08 4.3048e-09 0
3.1734e-09 1.222e-09 0
2.5307e-09 1.8092e-09 0
-9.7886e-12 -7.5897e-10 0
1.0512e-09 2.9521e-11 0
3.115e-10 1.4715e-09 0
1.2149e-10 -5.8483e-11 0
8.6717e-06 -2.5493e-06 0
0 0 0
1.3449e-05 -1.1182e-05 0
7.3775e-06 -8.9614e-07 0
0 0 0
6.4335e-06 -3.901e-08 0
0 0 0
6.3001e-06 5.7836e-07 0
0 0 0
5.861e-06 9.1401e-07 0
0 0 0
5.607e-06 1.0952e-06 0
0 0 0
5.3571e-06 1.2794e-06 0
0 0 0
5.0715e-06 1.3208e-06 0
0 0 0
4.9645e-06 1.4637e-06 0
0 0 0
4.5841e-06 1.4532e-06 0
0 0 0
4.5513e-06 1.4899e-06 0
0 0 0
4.225e-06 1.5564e-06 0
0 0 0
4.0695e-06 1.5112e-06 0
0 0 0
3.951e-06 1.5355e-06 0
0 0 0
3.6707e-06 1.5727e-06 0
0 0 0
3.6295e-06 1.4786e-06 0
0 0 0
3.3727e-06 1.4648e-06 0
0 0 0
3.2322e-06 1.4386e-06 0
0 0 0
2.9012e-06 1.2513e-06 0
0 0 0
2.8284e-06 1.3142e-06 0
0 0 0
2.5647e-06 1.1702e-06 0
0 0 0
1.6109e-06 6.84e-07 0
0 0 0
7.8256e-07 3.1681e-07 0
0 0 0
2.9626e-07 1.1166e-07 0
0 0 0
8.9604e-08 3.1432e-08 0
0 0 0
2.5466e-08 9.6559e-09 0
0 0 0
4.1642e-09 3.6042e-10 0
0 0 0
1.8638e-09 1.3985e-09 0
0 0 0
-3.4921e-10 -7.1555e-10 0
0 0 0
4.0562e-10 8.0475e-11 0
0 0 0
VECTORS vec double
0.0014945 -0.00041024 0
0.0015095 -0.00033246 0
0.0015532 -0.00037266 0
0.0014851 -0.00034045 0
0.0015453 -0.00043687 0
0.0014853 -0.00038097 0
0.0015304 -0.000411 0
0.0014851 -0.0003515 0
0.0016071 -0.00042978 0
0.001399 -0.00035221 0
0.0016836 -0.00045866 0
0.0014019 -0.00038587 0
0.0016498 -0.00043938 0
0.001486 -0.00055707 0
0.0016888 -0.00046827 0
0.0016696 -0.00050121 0
0.0016617 -0.00044386 0
0.001724 -0.00048604 0
0.0017627 -0.00043147 0
0.0017535 -0.00045052 0
0.0015308 -0.00045985 0
0.0023404 -0.0005229 0
0.0018871 -0.00046027 0
0.00092773 -0.00024523 0
0.00042449 -0.00012354 0
9.6768e-05 -2.2851e-05 0
4.8071e-05 -2.5153e-05 0
1.0851e-08 9.2282e-06 0
6.0497e-06 -9.4726e-06 0
-3.8335e-06 5.3366e-06 0
-8.7556e-07 -2.1537e-07 0
0.0015347 -0.00035555 0
0.0014668 -0.00036719 0
0.001584 -0.0003546 0
0.0014092 -0.00041603 0
0.001587 -0.00041163 0
0.0014546 -0.00039122 0
0.0015674 -0.00036899 0
0.0014776 -0.00039399 0
0.0015718 -0.00038607 0
0.001482 -0.00037854 0
0.0016222 -0.00043007 0
0.0014587 -0.00038571 0
0.001673 -0.00045616 0
0.0015173 -0.00052339 0
0.0016741 -0.00049034 0
0.0016345 -0.00047774 0
0.0016931 -0.00047891 0
0.0016941 -0.00043138 0
0.0017388 -0.00045119 0
0.0018055 -0.00046667 0
0.001588 -0.00049299 0
0.0022288 -0.0004351 0
0.001669 -0.00024977 0
0.00080924 -0.0001207 0
0.00036536 -4.4204e-05 0
8.0205e-05 -5.7865e-06 0
4.4162e-05 -1.0923e-05 0
-1.8108e-06 6.1676e-06 0
5.8556e-06 -5.4155e-06 0
3.7574e-07 3.3579e-06 0
-1.242e-06 -4.6101e-06 0
0.0015942 -0.00038489 0
0.0014187 -0.00033516 0
0.001594 -0.00035568 0
0.0014149 -0.0003623 0
0.0015902 -0.00040442 0
0.0014455 -0.0003921 0
0.0015851 -0.00035401 0
0.0014483 -0.00038706 0
0.0016053 -0.00038216 0
0.0014833 -0.00037566 0
0.0016041 -0.00041459 0
0.0015082 -0.00040687 0
0.0016728 -0.00044333 0
0.00151 -0.00050103 0
0.0017033 -0.00049812 0
0.0016257 -0.00048296 0
0.0016758 -0.00044623 0
0.0016613 -0.00044079 0
0.0018452 -0.00049716 0
0.0018239 -0.00047566 0
0.0014084 -0.00037247 0
0.0020088 -0.00023797 0
0.0015576 -0.00012927 0
0.00078963 -6.3588e-05 0
0.00036955 -2.2499e-05 0
8.3462e-05 -6.3052e-06 0
4.5852e-05 -3.7963e-06 0
1.3888e-06 -1.6319e-06 0
1.4671e-06 4.0535e-06 0
1.5359e-06 -6.7954e-06 0
-4.9748e-06 1.0089e-05 0
0.0016534 -0.00035678 0
0.0013971 -0.00037285 0
0.0016332 -0.00035985 0
0.001408 -0.00040539 0
0.0015684 -0.00040431 0
0.0014657 -0.00036143 0
0.0015675 -0.00036285 0
0.0014609 -0.0003837 0
0.0016104 -0.00037102 0
0.0014745 -0.00038247 0
0.0016247 -0.00040973 0
0.0015229 -0.00039716 0
0.0016326 -0.00044409 0
0.0015797 -0.0004993 0
0.0016852 -0.00048187 0
0.0015768 -0.00046001 0
0.0017215 -0.00046357 0
0.0017444 -0.0005048 0
0.001818 -0.00046326 0
0.0016195 -0.0003201 0
0.0012024 -0.00020687 0
0.0019006 -0.00013814 0
0.0015539 -9.062e-05 0
0.00081122 -3.7848e-05 0
0.00038528 -2.5564e-05 0
9.0826e-05 3.5364e-06 0
4.7026e-05 -8.032e-06 0
3.0778e-06 -7.0581e-08 0
1.2592e-06 4.9394e-06 0
7.0399e-06 -1.0379e-05 0
-1.2194e-05 1.3441e-05 0
0.0016051 -0.00037065 0
0.0014188 -0.00037961 0
0.0016486 -0.00035973 0
0.0013829 -0.00037553 0
0.0015759 -0.00036799 0
0.0014722 -0.00036437 0
0.0015552 -0.00035667 0
0.0014599 -0.00037578 0
0.0016332 -0.00036703 0
0.0014565 -0.00038916 0
0.0016273 -0.00038456 0
0.0015341 -0.00040915 0
0.0016473 -0.00045751 0
0.0015739 -0.0004598 0
0.0016342 -0.00046245 0
0.0016722 -0.00050744 0
0.0017809 -0.00050431 0
0.001656 -0.00043657 0
0.0016193 -0.00029046 0
0.0014327 -0.00018502 0
0.0011177 -0.00012504 0
0.0018825 -0.00011294 0
0.0015864 -7.0936e-05 0
0.00083939 -2.9522e-05 0
0.00040015 -2.1516e-05 0
9.8375e-05 4.2755e-06 0
4.7085e-05 -8.0461e-06 0
5.7252e-06 3.706e-06 0
-3.9146e-06 -1.4941e-06 0
9.7146e-06 -8.8896e-07 0
-6.2469e-06 -3.8533e-07 0
0.0016427 -0.00038045 0
0.001419 -0.00037175 0
0.0016654 -0.00037862 0
0.0013896 -0.00038525 0
0.0015556 -0.00037746 0
0.0014516 -0.00033581 0
0.0015683 -0.0003703 0
0.0014821 -0.00037471 0
0.0016044 -0.00036007 0
0.0014416 -0.00037239 0
0.0016881 -0.00039885 0
0.0014978 -0.00041277 0
0.0016251 -0.00041828 0
0.0015784 -0.00045582 0
0.0017174 -0.00053063 0
0.0017196 -0.00051026 0
0.0016385 -0.00040458 0
0.0014581 -0.00026895 0
0.0014769 -0.00016593 0
0.0013599 -0.0001339 0
0.0011065 -0.00010369 0
0.0018936 -0.00010232 0
0.0016309 -5.545e-05 0
0.0008604 -2.9112e-05 0
0.00041356 -9.0603e-06 0
0.00010659 -3.9889e-06 0
4.1895e-05 -9.1288e-07 0
1.3961e-05 6.402e-07 0
-6.5296e-06 -4.1118e-06 0
4.6947e-06 1.0767e-05 0
-1.0059e-05 -1.0349e-05 0
0.0016074 -0.00036821 0
0.001419 -0.00037416 0
0.0016541 -0.00036525 0
0.001359 -0.00034554 0
0.0015482 -0.00033488 0
0.0014843 -0.00036309 0
0.0015679 -0.00037292 0
0.0014555 -0.00034057 0
0.0015945 -0.00035987 0
0.0015016 -0.0003879 0
0.0016405 -0.00038437 0
0.001446 -0.00037932 0
0.0016904 -0.00044067 0
0.0016502 -0.00052599 0
0.0017088 -0.0005084 0
0.0015678 -0.00037133 0
0.0014373 -0.0002557 0
0.0013522 -0.00016079 0
0.0014296 -0.00012978 0
0.0013476 -0.00011748 0
0.001118 -0.00010399 0
0.0019138 -8.4826e-05 0
0.0016764 -4.7437e-05 0
0.0008752 -2.2918e-05 0
0.00042561 -4.0644e-06 0
0.00011188 -6.7269e-06 0
3.9925e-05 4.2157e-06 0
1.3628e-05 -2.4847e-06 0
-3.5141e-06 -4.6269e-06 0
1.0196e-05 6.4211e-06 0
-8.7628e-06 -6.956e-06 0
0.0016166 -0.000375 0
0.0014311 -0.00036026 0
0.0016543 -0.00034137 0
0.0013668 -0.00035601 0
0.0015559 -0.00036842 0
0.0014688 -0.00035997 0
0.0015418 -0.00033109 0
0.0014679 -0.00035404 0
0.0016231 -0.00037214 0
0.0014527 -0.00036114 0
0.0015888 -0.00035722 0
0.0015377 -0.00042203 0
0.0017537 -0.00050004 0
0.0015829 -0.00048411 0
0.001545 -0.00035019 0
0.0013964 -0.00023349 0
0.0013402 -0.00017202 0
0.0013397 -0.00013096 0
0.0014169 -0.00012052 0
0.0013564 -0.00011425 0
0.0011329 -0.00010038 0
0.0019478 -6.8011e-05 0
0.0017075 -3.9936e-05 0
0.00089312 -1.4239e-05 0
0.00043293 -4.9831e-06 0
0.00011205 -2.7624e-06 0
4.7163e-05 -3.5209e-07 0
6.6492e-06 2.3849e-06 0
-3.8663e-06 -5.2827e-07 0
9.1677e-06 -2.2392e-06 0
-1.5168e-05 2.9667e-06 0
0.0016117 -0.00036107 0
0.0014234 -0.00035849 0
0.0016328 -0.0003692 0
0.0013538 -0.00036201 0
0.0015394 -0.00033827 0
0.0014646 -0.00032646 0
0.001558 -0.00034773 0
0.0014648 -0.00035264 0
0.0015726 -0.00034074 0
0.0014275 -0.00034878 0
0.0016779 -0.00040411 0
0.0015784 -0.00046299 0
0.0016446 -0.0004409 0
0.001412 -0.0003298 0
0.0014068 -0.00022087 0
0.0013199 -0.00017384 0
0.0013323 -0.00014538 0
0.0013483 -0.0001261 0
0.0014181 -0.00011596 0
0.0013669 -0.00011284 0
0.0011557 -8.9311e-05 0
0.001989 -5.4864e-05 0
0.0017241 -2.845e-05 0
0.00091413 -1.1015e-05 0
0.00043433 -3.57e-06 0
0.00011178 2.0918e-06 0
5.1979e-05 -5.7752e-06 0
5.5374e-06 1.9554e-06 0
-3.2452e-07 1.7931e-06 0
7.2501e-06 -2.9187e-06 0
-8.4846e-06 4.5875e-06 0
0.0015622 -0.00037217 0
0.0013993 -0.00036617 0
0.0016309 -0.00034476 0
0.0013533 -0.00032654 0
0.0015453 -0.0003299 0
0.0014565 -0.00034129 0
0.0015336 -0.00033605 0
0.0014236 -0.00032944 0
0.0015772 -0.00034463 0
0.001494 -0.00038383 0
0.0016819 -0.00041906 0
0.0014436 -0.00039264 0
0.0014818 -0.00030413 0
0.0013022 -0.00021525 0
0.001355 -0.00017658 0
0.0013131 -0.00015586 0
0.0013493 -0.00013633 0
0.001354 -0.00012317 0
0.0014283 -0.00011493 0
0.0013774 -0.00010477 0
0.0011906 -7.5735e-05 0
0.0020228 -4.1472e-05 0
0.0017391 -1.8499e-05 0
0.0009282 -8.2178e-06 0
0.00043542 -3.5479e-06 0
0.00011486 3.1915e-06 0
4.7071e-05 -6.6822e-07 0
7.7243e-06 -1.9661e-06 0
7.7564e-07 6.7036e-07 0
3.2268e-06 -2.6982e-06 0
-1.4119e-06 -4.4706e-07 0
0.0016335 -0.00034871 0
0.0014302 -0.0003419 0
0.0016363 -0.00033393 0
0.0013418 -0.00033513 0
0.0015163 -0.00033116 0
0.0014311 -0.00032118 0
0.0015157 -0.0003205 0
0.0014355 -0.00033355 0
0.0016076 -0.00035729 0
0.0014523 -0.00037483 0
0.0015407 -0.00034809 0
0.0013004 -0.00027963 0
0.0014033 -0.00021099 0
0.0012687 -0.00017996 0
0.0013521 -0.0001666 0
0.0013316 -0.00014524 0
0.0013619 -0.00012979 0
0.001361 -0.00012156 0
0.0014397 -0.00011169 0
0.0013998 -9.1271e-05 0
0.0012268 -5.8727e-05 0
0.0020474 -2.9863e-05 0
0.001756 -1.2161e-05 0
0.00093077 -2.4964e-06 0
0.00043975 -4.9922e-06 0
0.00011894 -4.3346e-08 0
4.3005e-05 3.16e-06 0
9.4467e-06 -1.4477e-06 0
-1.4664e-06 2.9931e-06 0
-3.9996e-08 7.2991e-07 0
-3.5049e-06 5.2301e-07 0
0.0015599 -0.00039688 0
0.0013852 -0.00035465 0
0.0015929 -0.0003345 0
0.0013038 -0.00031731 0
0.0014964 -0.00030674 0
0.0014142 -0.0003101 0
0.0015034 -0.00031792 0
0.0014183 -0.00033004 0
0.0015317 -0.00033713 0
0.0013214 -0.00031212 0
0.0014312 -0.00025881 0
0.0012505 -0.00020794 0
0.001386 -0.00018384 0
0.0012686 -0.0001744 0
0.00137 -0.00015526 0
0.0013491 -0.00013597 0
0.0013708 -0.00012577 0
0.0013685 -0.00011864 0
0.0014571 -0.00010286 0
0.0014339 -7.2828e-05 0
0.0012544 -4.121e-05 0
0.0020684 -2.08e-05 0
0.0017686 -7.427e-06 0
0.00093002 -8.7357e-08 0
0.00044253 -1.6964e-06 0
0.00011875 -1.9207e-06 0
4.6144e-05 -2.3227e-08 0
9.6787e-06 -9.9365e-07 0
-4.2047e-07 4.7827e-08 0
5.3101e-06 -3.4799e-07 0
-4.2784e-06 1.4522e-06 0
0.0014855 -0.00039487 0
0.0012941 -0.00032551 0
0.0015263 -0.00029802 0
0.0012563 -0.00029168 0
0.001446 -0.00029996 0
0.0013659 -0.00030196 0
0.0014524 -0.00030392 0
0.0013365 -0.0003063 0
0.0014309 -0.00028596 0
0.0012536 -0.00024422 0
0.0014068 -0.0002061 0
0.0012442 -0.00018867 0
0.0013887 -0.00018066 0
0.001286 -0.0001622 0
0.001389 -0.00014214 0
0.0013604 -0.00013034 0
0.0013784 -0.00012241 0
0.0013802 -0.00011132 0
0.0014862 -8.5535e-05 0
0.0014672 -5.239e-05 0
0.0012761 -2.7871e-05 0
0.0020841 -1.1297e-05 0
0.0017745 -5.0072e-06 0
0.00093347 -1.7246e-06 0
0.00044209 2.7366e-06 0
0.00011546 -1.5496e-06 0
4.9245e-05 -8.0494e-08 0
6.9314e-06 9.4482e-07 0
-7.9922e-07 -2.5172e-06 0
7.2764e-06 -8.7416e-07 0
-9.4401e-06 -4.4911e-07 0
0.0014364 -0.00029374 0
0.0012558 -0.00030468 0
0.0014836 -0.00030551 0
0.0012075 -0.00030668 0
0.0014032 -0.00029394 0
0.0013241 -0.00028617 0
0.0013981 -0.00028928 0
0.0012819 -0.00027336 0
0.0014033 -0.00023687 0
0.0012483 -0.00020583 0
0.0014064 -0.00019304 0
0.0012498 -0.00018524 0
0.0014061 -0.00016645 0
0.0013059 -0.00014596 0
0.0014012 -0.00013406 0
0.001368 -0.00012624 0
0.0013886 -0.00011636 0
0.0014041 -9.46e-05 0
0.0015188 -6.2143e-05 0
0.0014935 -3.5582e-05 0
0.0012946 -1.682e-05 0
0.0020916 -4.4052e-06 0
0.001777 -3.7119e-06 0
0.00093748 -1.6833e-06 0
0.00044189 1.8598e-06 0
0.00011505 -1.2657e-06 0
4.9441e-05 1.0079e-06 0
6.1873e-06 1.1956e-06 0
-2.1442e-06 2.9822e-07 0
6.1444e-06 2.5479e-06 0
-9.2855e-06 -1.2618e-06 0
0.0014683 -0.00027838 0
0.001278 -0.00029189 0
0.0014937 -0.00028921 0
0.0012136 -0.00027433 0
0.001399 -0.00027192 0
0.0013123 -0.00027999 0
0.0013884 -0.00026357 0
0.0012825 -0.00022851 0
0.0014063 -0.00020442 0
0.00125 -0.00019637 0
0.0014149 -0.00018726 0
0.0012681 -0.00016727 0
0.0014256 -0.00014773 0
0.0013184 -0.00013646 0
0.0014085 -0.00012907 0
0.001377 -0.00012014 0
0.0014099 -0.00010023 0
0.0014357 -6.9253e-05 0
0.0015458 -4.1415e-05 0
0.0015138 -2.1379e-05 0
0.0013069 -8.1853e-06 0
0.0020948 -3.031e-06 0
0.0017791 -7.2022e-07 0
0.00093758 -4.7558e-07 0
0.00044231 -8.6508e-07 0
0.00011656 6.0409e-07 0
4.8294e-05 -6.6197e-07 0
9.0017e-06 -1.4059e-06 0
-1.2998e-06 4.3477e-07 0
5.4888e-06 6.3352e-07 0
-5.9576e-06 -1.4606e-06 0
0.0014992 -0.00023184 0
0.0013081 -0.00024616 0
0.0015212 -0.00025318 0
0.0012298 -0.00026401 0
0.0014146 -0.00026901 0
0.0013276 -0.00024895 0
0.0013977 -0.00022079 0
0.0012835 -0.00020609 0
0.0014084 -0.00019903 0
0.0012617 -0.00018493 0
0.0014338 -0.00016342 0
0.0012859 -0.00014648 0
0.0014367 -0.00013745 0
0.0013249 -0.00013083 0
0.0014173 -0.000122 0
0.0013966 -0.0001029 0
0.00144 -7.3083e-05 0
0.0014638 -4.5527e-05 0
0.0015666 -2.4864e-05 0
0.0015275 -9.7826e-06 0
0.0013123 -4.5854e-06 0
0.0020976 -2.3462e-06 0
0.0017807 1.4664e-06 0
0.00093618 -8.6999e-07 0
0.00044276 -8.2236e-07 0
0.00011692 2.0046e-06 0
4.6314e-05 -1.1564e-06 0
9.7576e-06 -2.3633e-07 0
-7.721e-07 -1.4642e-07 0
4.2026e-06 -1.4496e-06 0
-6.2054e-06 1.0081e-06 0
0.0015057 -0.00023191 0
0.0013219 -0.00024261 0
0.0015337 -0.0002482 0
0.00125 -0.00024259 0
0.0014324 -0.00022932 0
0.0013312 -0.0002164 0
0.0013945 -0.00020638 0
0.0012887 -0.00019318 0
0.0014239 -0.00017408 0
0.0012799 -0.00015528 0
0.0014486 -0.00014382 0
0.0012946 -0.00013765 0
0.0014424 -0.00013154 0
0.0013344 -0.00012174 0
0.0014369 -0.00010186 0
0.0014251 -7.3134e-05 0
0.0014672 -4.6688e-05 0
0.0014847 -2.6576e-05 0
0.0015812 -1.1677e-05 0
0.0015339 -4.6358e-06 0
0.0013148 -2.6233e-06 0
0.0020997 -3.5187e-07 0
0.0017806 2.6629e-07 0
0.00093628 -5.1214e-07 0
0.00044319 9.7751e-08 0
0.00011688 1.4878e-07 0
4.6309e-05 -2.7011e-08 0
8.5121e-06 1.3145e-06 0
-9.2863e-07 -7.7967e-08 0
4.4063e-06 -5.4153e-07 0
-6.2273e-06 2.2351e-06 0
0.0015193 -0.00020459 0
0.0013281 -0.00020571 0
0.0015465 -0.00020587 0
0.0012579 -0.00021297 0
0.0014274 -0.00021068 0
0.0013271 -0.00019513 0
0.0014029 -0.0001754 0
0.0013038 -0.00015843 0
0.0014377 -0.00014723 0
0.00129 -0.00014153 0
0.0014545 -0.00013709 0
0.0013002 -0.00013046 0
0.0014537 -0.00011865 0
0.0013552 -9.7177e-05 0
0.0014646 -6.9463e-05 0
0.001451 -4.5079e-05 0
0.001487 -2.6121e-05 0
0.001499 -1.186e-05 0
0.0015882 -5.2048e-06 0
0.0015363 -2.7834e-06 0
0.0013171 3.6172e-08 0
0.0020999 -2.2304e-07 0
0.0017801 -9.4812e-07 0
0.00093742 1.0704e-06 0
0.0004426 -2.8718e-07 0
0.00011672 -1.1921e-06 0
4.8165e-05 8.3466e-07 0
7.7778e-06 -2.3444e-07 0
-1.0161e-06 -2.3983e-07 0
5.5799e-06 1.5727e-07 0
-6.5942e-06 -4.6957e-07 0
0.0015186 -0.00019312 0
0.0013363 -0.00019969 0
0.0015491 -0.00020826 0
0.0012539 -0.00019679 0
0.0014278 -0.00017247 0
0.0013359 -0.00015437 0
0.0014127 -0.00014549 0
0.0013112 -0.00014133 0
0.0014429 -0.00013839 0
0.0012938 -0.00013362 0
0.0014611 -0.00012503 0
0.0013142 -0.00011014 0
0.0014756 -8.7272e-05 0
0.0013811 -6.1812e-05 0
0.0014879 -4.0692e-05 0
0.0014691 -2.3964e-05 0
0.0015004 -1.1288e-05 0
0.0015059 -5.0957e-06 0
0.0015908 -2.863e-06 0
0.0015385 -3.8901e-07 0
0.0013176 4.3306e-07 0
0.0020991 -7.5445e-07 0
0.0017806 -4.8943e-08 0
0.00093772 7.823e-07 0
0.00044184 -5.6822e-07 0
0.0001166 -1.473e-07 0
4.8635e-05 5.7754e-07 0
7.5435e-06 -9.2784e-07 0
-1.2182e-06 4.5796e-07 0
5.8e-06 6.2705e-07 0
-7.4851e-06 -1.739e-06 0
0.0015244 -0.00017197 0
0.0013354 -0.0001718 0
0.0015484 -0.0001605 0
0.0012535 -0.00014508 0
0.0014293 -0.00013822 0
0.001338 -0.00013695 0
0.0014156 -0.0001359 0
0.0013147 -0.00013288 0
0.001448 -0.000126 0
0.0013042 -0.00011389 0
0.0014785 -9.5595e-05 0
0.0013364 -7.2612e-05 0
0.0014987 -5.0735e-05 0
0.0014008 -3.3491e-05 0
0.0015031 -1.9468e-05 0
0.0014803 -9.2486e-06 0
0.0015061 -4.6876e-06 0
0.0015081 -2.7253e-06 0
0.001593 -4.7131e-07 0
0.0015393 -2.6444e-10 0
0.0013169 -6.5343e-07 0
0.0020997 2.98e-07 0
0.0017809 3.2949e-07 0
0.00093687 -5.8238e-07 0
0.00044251 3.2542e-07 0
0.0001167 3.29e-07 0
4.7575e-05 -4.3948e-07 0
8.2363e-06 1.6737e-07 0
-1.134e-06 3.5277e-07 0
5.2289e-06 1.8221e-07 0
-7.2285e-06 -2.7567e-07 0
0.0015258 -0.00015154 0
0.0013377 -0.00015176 0
0.0015421 -0.00014443 0
0.0012465 -0.00013796 0
0.0014266 -0.00013315 0
0.0013394 -0.00012781 0
0.00142 -0.00011994 0
0.0013234 -0.00010797 0
0.0014628 -9.2074e-05 0
0.0013235 -7.3341e-05 0
0.001499 -5.4382e-05 0
0.0013556 -3.8525e-05 0
0.0015145 -2.5747e-05 0
0.0014132 -1.4648e-05 0
0.0015121 -6.9563e-06 0
0.0014846 -3.7269e-06 0
0.0015077 -1.9715e-06 0
0.0015098 -4.2713e-08 0
0.0015935 1.7658e-07 0
0.0015386 -7.6698e-07 0
0.0013175 -1.421e-07 0
0.0021005 5.7074e-07 0
0.0017802 -4.74e-07 0
0.00093672 -3.6727e-07 0
0.00044334 7.8986e-07 0
0.00011637 -2.4807e-07 0
4.7001e-05 -5.2081e-07 0
9.1038e-06 7.7823e-07 0
-1.069e-06 -5.1692e-07 0
4.7395e-06 -5.2375e-07 0
-6.4176e-06 9.9818e-07 0
0.0015248 -0.00014114 0
0.0013287 -0.0001296 0
0.0015368 -0.00011579 0
0.0012492 -0.00010593 0
0.0014336 -9.7768e-05 0
0.0013487 -8.8052e-05 0
0.0014324 -7.603e-05 0
0.0013384 -6.2714e-05 0
0.0014784 -4.9054e-05 0
0.0013383 -3.6474e-05 0
0.0015126 -2.5979e-05 0
0.001367 -1.6806e-05 0
0.0015236 -9.1675e-06 0
0.0014194 -4.9304e-06 0
0.0015149 -3.4128e-06 0
0.0014862 -1.7786e-06 0
0.0015097 -2.6484e-09 0
0.0015103 1.0061e-07 0
0.0015926 -3.8979e-07 0
0.0015388 2.6192e-07 0
0.0013178 4.6076e-07 0
0.0020997 -4.0869e-07 0
0.0017804 -2.7046e-07 0
0.00093744 2.5882e-07 0
0.00044282 -9.9704e-08 0
0.00011627 -1.0259e-07 0
4.7462e-05 2.3535e-07 0
8.6478e-06 1.3626e-07 0
-1.1662e-06 -3.3927e-07 0
4.9457e-06 -2.268e-07 0
-6.3036e-06 5.9856e-07 0
0.0015164 -7.4723e-05 0
0.0013235 -6.518e-05 0
0.0015379 -5.953e-05 0
0.0012536 -5.5283e-05 0
0.0014408 -4.9642e-05 0
0.0013586 -4.2975e-05 0
0.0014432 -3.5932e-05 0
0.0013489 -2.8729e-05 0
0.0014882 -2.1958e-05 0
0.0013471 -1.5721e-05 0
0.0015197 -9.7407e-06 0
0.0013724 -5.1549e-06 0
0.001527 -3.0392e-06 0
0.0014209 -1.9962e-06 0
0.0015161 -5.8497e-07 0
0.0014875 1.8877e-07 0
0.0015097 -4.425e-07 0
0.0015099 -8.2008e-07 0
0.0015936 7.4792e-08 0
0.0015395 5.117e-07 0
0.001317 -2.0024e-07 0
0.0020994 -1.2244e-07 0
0.001781 5.6548e-07 0
0.00093719 -1.2893e-07 0
0.00044225 -6.336e-07 0
0.00011703 4.2351e-07 0
4.7835e-05 2.4561e-07 0
7.6773e-06 -5.6355e-07 0
-1.0023e-06 4.2073e-07 0
5.4435e-06 2.7152e-07 0
-6.9623e-06 -5.7576e-07 0
0.0015081 -3.3416e-05 0
0.0013204 -2.8719e-05 0
0.0015383 -2.6546e-05 0
0.0012563 -2.4423e-05 0
0.0014445 -2.1896e-05 0
0.0013626 -1.8491e-05 0
0.0014479 -1.4386e-05 0
0.0013544 -1.0313e-05 0
0.0014938 -6.6271e-06 0
0.0013516 -3.8015e-06 0
0.0015227 -2.6272e-06 0
0.0013738 -2.4894e-06 0
0.0015276 -1.65e-06 0
0.0014219 -1.4049e-07 0
0.0015171 4.078e-07 0
0.0014871 -1.0879e-07 0
0.0015091 -1.9426e-07 0
0.0015103 3.0099e-07 0
0.0015938 6.2627e-08 0
0.001539 -6.3254e-07 0
0.0013174 -2.8989e-07 0
0.0021002 4.4409e-07 0
0.0017805 2.032e-07 0
0.00093653 -1.6177e-07 0
0.00044262 9.1637e-08 0
0.0001172 1.3617e-07 0
4.7659e-05 -2.7569e-07 0
7.8346e-06 -2.8484e-07 0
-9.2195e-07 4.2864e-07 0
5.4091e-06 2.2091e-07 0
-7.2697e-06 -6.6904e-07 0
0.0015029 -1.0735e-05 0
0.0013187 -8.8568e-06 0
0.0015395 -8.1304e-06 0
0.0012588 -7.3284e-06 0
0.0014476 -6.1309e-06 0
0.0013659 -5.0055e-06 0
0.0014506 -4.152e-06 0
0.001356 -3.3249e-06 0
0.0014945 -2.5691e-06 0
0.0013524 -1.9523e-06 0
0.0015239 -1.002e-06 0
0.0013752 2.2441e-07 0
0.0015287 5.6644e-07 0
0.0014218 -2.9297e-07 0
0.0015161 -8.8544e-07 0
0.0014871 -2.194e-07 0
0.0015101 6.3302e-07 0
0.0015104 3.9678e-07 0
0.0015927 -2.5442e-07 0
0.0015388 -9.8561e-08 0
0.001318 2.0405e-07 0
0.0021002 -3.0035e-07 0
0.0017803 -4.6537e-07 0
0.00093709 3.74e-07 0
0.00044274 4.7705e-07 0
0.00011629 -3.1221e-07 0
4.7594e-05 -1.0972e-07 0
8.672e-06 2.4658e-07 0
-1.1954e-06 -2.9952e-07 0
5.0454e-06 -6.9069e-08 0
-6.7777e-06 3.2988e-07 0
0.0015014 -2.7143e-06 0
0.0013189 -2.3737e-06 0
0.0015392 -2.4239e-06 0
0.0012583 -2.327e-06 0
0.0014474 -2.127e-06 0
0.0013662 -1.6914e-06 0
0.0014514 -1.1236e-06 0
0.0013571 -7.8306e-07 0
0.0014954 -6.5002e-07 0
0.0013526 -3.7511e-07 0
0.0015237 -8.4203e-08 0
0.0013751 -1.6259e-07 0
0.0015288 -3.0895e-07 0
0.0014221 -2.3999e-09 0
0.0015167 3.9425e-07 0
0.0014873 1.6206e-07 0
0.0015094 -4.5445e-07 0
0.00151 -4.4796e-07 0
0.0015935 3.0246e-07 0
0.0015393 6.1781e-07 0
0.0013171 2.5713e-08 0
0.0020995 -3.6929e-07 0
0.001781 -7.2308e-08 0
0.00093769 5.2701e-08 0
0.00044251 -1.7949e-07 0
0.00011608 -3.5816e-08 0
4.7625e-05 4.1804e-07 0
8.638e-06 1.8749e-07 0
-1.2933e-06 -5.8098e-07 0
5.0495e-06 -1.5398e-07 0
-6.3688e-06 7.002e-07 0
0.0015002 -9.0858e-07 0
0.0013183 -6.0376e-07 0
0.0015396 -4.4273e-07 0
0.0012592 -3.912e-07 0
0.0014481 -3.9274e-07 0
0.0013664 -4.3638e-07 0
0.0014513 -4.0402e-07 0
0.0013571 -9.478e-08 0
0.0014958 3.245e-07 0
0.0013532 2.9183e-07 0
0.0015238 -2.7985e-07 0
0.0013744 -6.3322e-07 0
0.0015282 -2.5228e-07 0
0.0014225 3.1789e-07 0
0.0015174 3.1786e-07 0
0.0014872 -1.1468e-07 0
0.0015091 -2.5113e-07 0
0.0015102 2.0404e-08 0
0.0015937 5.3346e-08 0
0.0015391 -2.2247e-07 0
0.0013172 -3.9486e-08 0
0.0020998 5.031e-07 0
0.0017806 3.1007e-07 0
0.00093702 -4.3598e-07 0
0.0004428 -3.9925e-07 0
0.00011695 1.8245e-07 0
4.7466e-05 1.5235e-07 0
7.9411e-06 -3.0643e-08 0
-1.093e-06 1.1548e-07 0
5.3062e-06 -2.5928e-08 0
-6.5515e-06 -1.2982e-07 0
0.0015004 1.5114e-07 0
0.0013185 -1.0257e-08 0
0.0015393 -1.0481e-07 0
0.0012588 1.0569e-08 0
0.0014482 2.5865e-07 0
0.0013669 4.2673e-07 0
0.0014516 3.3349e-07 0
0.0013569 -9.0243e-08 0
0.0014951 -5.7277e-07 0
0.0013528 -5.2269e-07 0
0.0015243 1.998e-07 0
0.0013756 7.441e-07 0
0.0015286 3.0217e-07 0
0.0014214 -5.7804e-07 0
0.0015161 -6.7179e-07 0
0.0014876 1.229e-07 0
0.0015105 6.3342e-07 0
0.0015103 1.6372e-07 0
0.0015926 -4.825e-07 0
0.0015388 -3.3475e-07 0
0.001318 1.9433e-07 0
0.0021003 2.1652e-07 0
0.0017801 -2.9537e-08 0
0.00093653 8.4343e-08 0
0.00044285 2.2064e-07 0
0.00011714 -1.5421e-07 0
4.7593e-05 -5.1876e-07 0
7.9937e-06 -1.2852e-08 0
-1.0603e-06 6.8942e-07 0
5.2637e-06 7.9686e-08 0
-6.9064e-06 -7.1749e-07 0
0.0015 -4.0156e-07 0
0.0013182 -1.8163e-07 0
0.0015392 -7.0028e-08 0
0.0012585 -2.1089e-07 0
0.0014474 -4.9876e-07 0
0.0013661 -5.8774e-07 0
0.0014515 -3.0416e-07 0
0.0013575 2.5015e-07 0
0.001496 7.2088e-07 0
0.001353 6.4905e-07 0
0.0015236 2.1599e-09 0
0.0013747 -5.1078e-07 0
0.0015287 -2.7256e-07 0
0.0014223 2.8652e-07 0
0.0015166 3.3408e-07 0
0.0014869 -1.0573e-07 0
0.0015094 -3.3916e-07 0
0.0015105 -7.9763e-08 0
0.0015937 2.8176e-07 0
0.0015391 2.4554e-07 0
0.0013171 -1.9057e-07 0
0.0020998 -4.3765e-07 0
0.0017809 -7.0515e-08 0
0.00093721 4.2026e-07 0
0.00044227 3.0709e-07 0
0.00011631 -1.7047e-07 0
4.7867e-05 -2.8357e-07 0
8.6622e-06 -3.9777e-08 0
-1.0775e-06 1.1652e-07 0
5.0262e-06 6.1477e-08 0
-7.1341e-06 -1.4626e-08 0
0.0015002 4.1666e-07 0
0.0013184 1.6721e-07 0
0.0015396 6.955e-09 0
0.0012595 1.331e-07 0
0.0014486 4.2369e-07 0
0.0013667 4.588e-07 0
0.0014512 1.1609e-07 0
0.0013566 -3.5229e-07 0
0.0014953 -5.899e-07 0
0.0013532 -4.1323e-07 0
0.0015242 4.6072e-09 0
0.0013748 2.6752e-07 0
0.0015283 2.5287e-07 0
0.0014223 1.8936e-07 0
0.0015172 1.0455e-07 0
0.0014871 -1.5164e-07 0
0.0015088 -2.8766e-07 0
0.00151 3.3051e-08 0
0.001594 3.3856e-07 0
0.0015395 8.8378e-08 0
0.0013171 -2.4605e-07 0
0.0020994 -9.9877e-08 0
0.0017809 9.0672e-08 0
0.00093752 -1.0863e-07 0
0.00044249 -1.9302e-07 0
0.00011618 2.2978e-07 0
4.752e-05 4.9583e-07 0
8.6092e-06 -1.0222e-07 0
-8.2984e-07 -7.2688e-07 0
5.0864e-06 -2.7097e-08 0
-7.1426e-06 7.9445e-07 0
0.0015003 -4.6043e-07 0
0.0013186 -2.5047e-07 0
0.0015393 -6.5028e-08 0
0.0012582 -1.7158e-07 0
0.0014474 -4.4164e-07 0
0.0013665 -4.3178e-07 0
0.0014519 -1.0024e-07 0
0.0013574 1.9356e-07 0
0.0014954 1.766e-07 0
0.0013525 -2.0247e-09 0
0.0015239 3.1546e-09 0
0.0013756 1.6033e-07 0
0.0015289 4.5427e-08 0
0.0014215 -3.1794e-07 0
0.0015162 -2.5238e-07 0
0.0014878 3.4278e-07 0
0.0015104 5.2526e-07 0
0.0015099 -8.7841e-08 0
0.0015924 -5.0696e-07 0
0.001539 -8.2849e-08 0
0.0013183 4.0738e-07 0
0.0021002 2.2712e-07 0
0.00178 -2.1962e-07 0
0.00093676 -3.4725e-07 0
0.00044315 -1.3821e-07 0
0.000117 2.3054e-07 0
4.718e-05 4.0215e-07 0
7.9216e-06 2.2148e-09 0
-9.0343e-07 -4.0049e-07 0
5.3406e-06 -5.7561e-08 0
-6.6454e-06 2.1439e-07 0
0.0015002 4.863e-07 0
0.0013182 3.1788e-07 0
0.0015396 7.2569e-08 0
0.0012596 1.1271e-07 0
0.0014485 3.0595e-07 0
0.0013664 2.1187e-07 0
0.0014511 -1.0767e-07 0
0.001357 -2.1369e-07 0
0.001496 3.4405e-08 0
0.0013534 1.8791e-07 0
0.0015236 -1.5442e-07 0
0.0013742 -5.4656e-07 0
0.0015285 -2.6287e-07 0
0.0014228 3.5812e-07 0
0.0015171 3.6456e-07 0
0.0014869 -1.0207e-07 0
0.0015095 -1.7114e-07 0
0.0015106 7.0898e-08 0
0.0015933 3.5564e-08 0
0.0015385 -6.3564e-08 0
0.0013173 7.2139e-08 0
0.0021004 8.5751e-08 0
0.0017808 -8.5995e-08 0
0.00093672 -3.8964e-08 0
0.00044258 1.0877e-07 0
0.00011702 -6.6912e-08 0
4.779e-05 -3.1027e-07 0
7.9486e-06 5.7688e-08 0
-1.6028e-06 6.2469e-07 0
5.3011e-06 2.4531e-08 0
-5.9883e-06 -8.8537e-07 0
0.0015003 -4.1152e-07 0
0.0013188 -2.7828e-07 0
0.0015395 5.6178e-08 0
0.0012584 8.0694e-08 0
0.0014478 -6.0227e-08 0
0.001367 8.6557e-08 0
0.001452 3.4967e-07 0
0.0013569 2.2476e-07 0
0.001495 -2.6829e-07 0
0.0013528 -4.45e-07 0
0.0015245 3.5062e-08 0
0.0013755 4.5017e-07 0
0.0015283 1.461e-07 0
0.0014217 -2.7851e-07 0
0.001517 -1.8431e-07 0
0.0014875 -6.4672e-08 0
0.0015091 -1.615e-07 0
0.0015101 1.0839e-07 0
0.0015941 4.406e-07 0
0.0015393 3.7604e-09 0
0.0013165 -5.0781e-07 0
0.0020993 -9.7368e-08 0
0.0017814 4.3286e-07 0
0.00093775 2.2544e-07 0
0.00044208 -8.6153e-08 0
0.00011611 -2.2566e-07 0
4.8169e-05 -4.0826e-07 0
8.6317e-06 5.8648e-08 0
-1.6991e-06 7.1009e-07 0
5.0573e-06 2.1515e-08 0
-6.3507e-06 -6.011e-07 0
0.0015002 4.766e-07 0
0.001318 3.5857e-07 0
0.0015393 -6.9969e-08 0
0.0012592 -9.6586e-08 0
0.0014479 8.2866e-08 0
0.0013659 -7.7413e-08 0
0.0014513 -3.1406e-07 0
0.0013576 -4.8095e-08 0
0.0014962 5.4613e-07 0
0.0013529 6.4603e-07 0
0.0015234 9.7105e-08 0
0.001375 -2.5835e-07 0
0.001529 -1.2052e-07 0
0.0014219 -1.539e-07 0
0.001516 -3.0053e-07 0
0.0014875 6.8151e-08 0
0.0015104 3.5788e-07 0
0.0015101 -9.4993e-08 0
0.0015926 -3.5054e-07 0
0.0015394 1.0178e-07 0
0.0013181 2.4488e-07 0
0.0020994 -1.0222e-07 0
0.00178 -6.7103e-08 0
0.00093742 2.1335e-07 0
0.00044306 4.9559e-08 0
0.00011637 -2.5995e-07 0
4.7297e-05 -3.75e-08 0
8.4902e-06 2.1872e-07 0
-5.8695e-07 -2.2589e-07 0
5.1146e-06 -1.4175e-07 0
-7.6766e-06 6.9506e-07 0
0.0015 1.4242e-08 0
0.0013187 1.3539e-07 0
0.0015394 7.4374e-07 0
0.0012586 7.1129e-07 0
0.0014483 3.4918e-07 0
0.0013671 4.4221e-07 0
0.0014514 6.614e-07 0
0.0013563 3.0966e-07 0
0.0014951 -3.2001e-07 0
0.0013533 -3.7307e-07 0
0.0015244 2.7158e-08 0
0.0013746 8.4722e-08 0
0.001528 1.0722e-08 0
0.0014226 3.3892e-07 0
0.0015173 3.5642e-07 0
0.0014867 -2.7094e-07 0
0.0015091 -4.186e-07 0
0.0015107 1.0243e-09 0
0.0015935 -1.3668e-08 0
0.0015386 -2.2632e-08 0
0.0013179 3.9445e-07 0
0.0021006 1.4268e-07 0
0.0017799 -4.8504e-07 0
0.00093601 -1.3047e-07 0
0.0004432 2.9449e-07 0
0.0001176 2.7563e-08 0
4.6952e-05 2.1444e-07 0
7.6827e-06 8.6081e-08 0
-1.1376e-07 -8.1225e-07 0
5.3579e-06 -6.3134e-08 0
-7.8925e-06 9.4654e-07 0
0.001501 1.903e-06 0
0.0013183 1.2773e-06 0
0.0015395 3.7932e-07 0
0.0012589 5.1932e-07 0
0.0014473 1.0964e-06 0
0.0013656 9.047e-07 0
0.0014515 3.7668e-07 0
0.0013576 4.5145e-07 0
0.0014955 7.8415e-07 0
0.0013522 5.7811e-07 0
0.0015237 2.6e-07 0
0.0013757 4.1288e-07 0
0.0015288 3.2725e-07 0
0.0014214 -2.1506e-07 0
0.0015166 -1.8411e-07 0
0.0014877 1.7877e-07 0
0.0015092 -7.0514e-08 0
0.0015098 -1.5431e-07 0
0.001594 2.8254e-07 0
0.0015394 7.4114e-08 0
0.0013167 -3.8987e-07 0
0.0020999 -4.1158e-09 0
0.0017814 3.1626e-07 0
0.00093676 -1.6988e-07 0
0.00044193 -3.1853e-07 0
0.00011697 3.9632e-07 0
4.8048e-05 4.8829e-07 0
8.1402e-06 -5.1001e-07 0
-1.4374e-06 -4.5844e-07 0
5.1706e-06 3.4461e-07 0
-6.1904e-06 -8.1355e-08 0
0.0015011 4.4878e-06 0
0.0013189 4.4299e-06 0
0.0015392 5.4712e-06 0
0.0012586 4.8923e-06 0
0.0014484 3.525e-06 0
0.0013668 3.1704e-06 0
0.0014507 3.2571e-06 0
0.0013559 2.5734e-06 0
0.0014953 1.6421e-06 0
0.0013532 1.2932e-06 0
0.0015235 8.9294e-07 0
0.001374 1.7824e-07 0
0.0015286 1.0695e-07 0
0.0014225 3.7923e-07 0
0.0015163 8.3814e-08 0
0.0014871 7.0487e-08 0
0.0015104 4.959e-07 0
0.0015102 6.943e-08 0
0.0015924 -4.5301e-07 0
0.0015393 -8.1474e-08 0
0.001318 -6.0326e-08 0
0.0020992 -1.8948e-07 0
0.0017806 4.1588e-07 0
0.00093826 1.734e-07 0
0.00044235 -5.0494e-07 0
0.00011517 2.2751e-07 0
4.8184e-05 2.4088e-07 0
9.491e-06 -5.501e-07 0
-2.2176e-06 3.9461e-07 0
4.7507e-06 3.2738e-07 0
-5.2658e-06 -7.3143e-07 0
0.0015034 1.2458e-05 0
0.0013196 1.002e-05 0
0.0015403 8.2863e-06 0
0.001259 9.4532e-06 0
0.0014467 1.1196e-05 0
0.001365 1.0649e-05 0
0.0014507 8.7767e-06 0
0.0013561 7.4099e-06 0
0.0014935 6.0685e-06 0
0.001351 4.1909e-06 0
0.0015233 2.8433e-06 0
0.0013747 2.1131e-06 0
0.0015275 1.1367e-06 0
0.0014217 6.2606e-07 0
0.0015174 7.5212e-07 0
0.001487 1.8847e-07 0
0.0015089 -3.5302e-07 0
0.0015107 1.0622e-07 0
0.0015934 1.2656e-07 0
0.0015382 -3.0032e-07 0
0.0013178 7.6711e-08 0
0.0021005 2.6512e-07 0
0.0017799 -2.6917e-07 0
0.00093718 -1.5606e-07 0
0.00044348 4.9564e-07 0
0.00011597 4.1725e-09 0
4.6928e-05 -8.4688e-07 0
8.8621e-06 2.7328e-07 0
-7.3134e-07 1.0396e-06 0
5.063e-06 -3.5884e-07 0
-7.1393e-06 -4.5665e-07 0
0.0015051 2.2237e-05 0
0.0013217 2.1351e-05 0
0.0015404 2.2174e-05 0
0.0012594 2.1043e-05 0
0.0014486 1.9734e-05 0
0.0013655 2.0781e-05 0
0.0014484 2.1732e-05 0
0.0013534 2.0017e-05 0
0.0014924 1.6873e-05 0
0.0013495 1.3621e-05 0
0.00152 9.8473e-06 0
0.0013723 6.3894e-06 0
0.0015275 4.0764e-06 0
0.0014206 1.9451e-06 0
0.0015154 5.3865e-07 0
0.0014875 6.2997e-07 0
0.0015095 4.0321e-07 0
0.0015095 -1.1981e-07 0
0.001594 3.5945e-07 0
0.0015396 2.7557e-07 0
0.0013164 -3.0482e-07 0
0.0020999 6.7046e-08 0
0.0017816 -1.7021e-07 0
0.00093638 -3.5529e-07 0
0.00044216 7.0554e-07 0
0.00011802 -7.9919e-08 0
4.7319e-05 -9.1058e-07 0
6.7173e-06 8.335e-07 0
1.6575e-07 4.4462e-07 0
5.8925e-06 -6.6361e-07 0
-8.7182e-06 1.1449e-08 0
0.0015059 2.397e-05 0
0.0013244 2.3048e-05 0
0.001545 2.265e-05 0
0.0012625 2.8626e-05 0
0.0014493 3.5545e-05 0
0.0013665 3.8108e-05 0
0.0014497 3.8638e-05 0
0.0013517 3.9134e-05 0
0.0014871 3.7177e-05 0
0.0013441 3.1923e-05 0
0.001516 2.5321e-05 0
0.0013673 1.8098e-05 0
0.0015224 1.1486e-05 0
0.001419 7.1807e-06 0
0.0015146 3.9228e-06 0
0.0014855 1.3988e-06 0
0.0015098 1.0045e-06 0
0.0015104 8.2281e-07 0
0.0015925 -1.6747e-07 0
0.0015395 -1.6348e-08 0
0.0013177 3.6341e-07 0
0.0020988 -3.0025e-07 0
0.0017811 -3.2137e-07 0
0.00093763 4.2719e-07 0
0.00044148 -4.5175e-08 0
0.00011733 -6.4792e-07 0
4.8748e-05 7.0741e-07 0
7.0531e-06 5.7786e-07 0
-1.7129e-06 -1.172e-06 0
5.6873e-06 5.039e-09 0
-6.4912e-06 4.5881e-07 0
0.0015063 1.0631e-05 0
0.0013282 1.2224e-05 0
0.0015509 1.5059e-05 0
0.0012718 1.6829e-05 0
0.0014601 2.491e-05 0
0.0013739 4.0178e-05 0
0.001453 5.3952e-05 0
0.0013534 6.1136e-05 0
0.0014863 6.3518e-05 0
0.0013378 6.1359e-05 0
0.0015062 5.3807e-05 0
0.0013589 4.3092e-05 0
0.0015147 3.0968e-05 0
0.0014111 1.9362e-05 0
0.0015106 1.1433e-05 0
0.0014839 6.1214e-06 0
0.0015069 2.0972e-06 0
0.0015099 1.0021e-06 0
0.0015935 7.0982e-07 0
0.0015379 -1.7038e-07 0
0.0013178 3.155e-07 0
0.0021008 2.115e-07 0
0.0017794 -4.0951e-07 0
0.00093679 3.9174e-07 0
0.00044384 -3.6369e-07 0
0.00011612 -5.1702e-07 0
4.7516e-05 1.3408e-06 0
9.4283e-06 -3.5231e-07 0
-2.8589e-06 -1.2318e-06 0
4.4863e-06 6.8353e-07 0
-3.8052e-06 4.6347e-07 0
0.0015077 -5.6842e-06 0
0.001332 -4.6794e-06 0
0.0015591 1.5736e-06 0
0.0012803 1.1543e-05 0
0.0014711 1.9852e-05 0
0.0013907 2.8145e-05 0
0.0014708 4.3756e-05 0
0.0013653 6.4875e-05 0
0.0014915 8.2126e-05 0
0.0013379 9.1148e-05 0
0.0014988 9.1001e-05 0
0.0013441 8.1062e-05 0
0.0014994 6.5012e-05 0
0.0013982 4.6546e-05 0
0.0014985 2.8432e-05 0
0.0014767 1.5811e-05 0
0.0015042 8.4153e-06 0
0.0015067 2.9287e-06 0
0.0015927 9.8613e-07 0
0.001539 1.213e-06 0
0.0013165 9.3481e-08 0
0.0021008 -3.3214e-07 0
0.0017805 6.0061e-07 0
0.00093542 -1.2119e-07 0
0.00044427 -8.3792e-07 0
0.00011716 8.3899e-07 0
4.5694e-05 1.408e-07 0
9.2512e-06 -1.3974e-06 0
-6.1567e-07 1.0067e-06 0
4.4848e-06 4.9016e-07 0
-6.1236e-06 -5.6804e-07 0
0.0015142 -1.8134e-05 0
0.0013378 -2.4834e-05 0
0.0015696 -2.0579e-05 0
0.0012992 -8.435e-06 0
0.001489 1.2185e-05 0
0.0014036 3.4536e-05 0
0.0014859 4.9858e-05 0
0.0013862 6.3047e-05 0
0.001511 8.2176e-05 0
0.0013487 0.00010332 0
0.0015006 0.0001186 0
0.0013358 0.00012242 0
0.0014796 0.00011115 0
0.0013751 8.9317e-05 0
0.0014792 6.3597e-05 0
0.0014602 3.8294e-05 0
0.0014943 2.0439e-05 0
0.0015029 1.0231e-05 0
0.0015888 3.4101e-06 0
0.0015382 1.4995e-06 0
0.0013179 9.938e-07 0
0.0020985 -5.7398e-07 0
0.0017806 5.3562e-07 0
0.000938 3.1309e-07 0
0.00044201 -7.2362e-07 0
0.00011668 7.2279e-07 0
4.7554e-05 -7.8478e-07 0
7.3748e-06 -5.1664e-07 0
9.9906e-07 1.8553e-06 0
5.9288e-06 -3.3513e-07 0
-1.0428e-05 -8.5828e-07 0
0.001523 -4.0528e-05 0
0.0013523 -4.7618e-05 0
0.0015846 -4.4176e-05 0
0.0013169 -2.9901e-05 0
0.0015179 -1.0485e-05 0
0.0014366 1.8802e-05 0
0.0015092 5.5744e-05 0
0.0014006 8.4378e-05 0
0.0015279 9.9731e-05 0
0.0013697 0.0001136 0
0.0015161 0.00013153 0
0.0013398 0.00014839 0
0.0014704 0.00015514 0
0.0013502 0.00014233 0
0.0014476 0.00011361 0
0.0014333 7.9753e-05 0
0.0014727 4.6611e-05 0
0.0014901 2.3133e-05 0
0.0015839 1.1488e-05 0
0.0015342 3.9128e-06 0
0.0013171 4.6743e-07 0
0.0020989 1.181e-06 0
0.0017792 3.9083e-07 0
0.00093968 -4.2497e-07 0
0.00044181 8.5126e-07 0
0.00011428 -6.9512e-07 0
4.9812e-05 -1.1255e-06 0
8.1662e-06 2.1283e-06 0
-1.0811e-06 -5.383e-07 0
5.9878e-06 -1.2037e-06 0
-9.2963e-06 1.0687e-06 0
0.0015496 -7.2131e-05 0
0.0013787 -9.6116e-05 0
0.001619 -9.4887e-05 0
0.0013541 -6.7341e-05 0
0.0015503 -2.7478e-05 0
0.0014725 6.4233e-06 0
0.0015531 4.1281e-05 0
0.0014376 8.65e-05 0
0.0015464 0.00012714 0
0.0013803 0.00014721 0
0.001532 0.00015595 0
0.0013557 0.00016692 0
0.0014749 0.00018083 0
0.0013382 0.00018773 0
0.0014158 0.00017194 0
0.0013924 0.00013516 0
0.0014381 9.1905e-05 0
0.0014638 5.1241e-05 0
0.0015695 2.4866e-05 0
0.0015292 1.139e-05 0
0.0013121 2.169e-06 0
0.0020986 1.6391e-06 0
0.0017812 1.7995e-06 0
0.00093684 -1.442e-06 0
0.00044217 6.4833e-07 0
0.00011572 -1.3079e-07 0
4.8248e-05 -6.5825e-07 0
9.7788e-06 1.7728e-06 0
-2.6697e-06 -2.0118e-06 0
4.1584e-06 -5.9429e-07 0
-4.4128e-06 1.8918e-06 0
0.0015899 -0.00010089 0
0.0014377 -0.00014671 0
0.0016865 -0.00014391 0
0.0014218 -0.00011308 0
0.0016148 -5.6491e-05 0
0.0015218 1.1166e-05 0
0.0015905 5.9799e-05 0
0.0014806 9.2117e-05 0
0.0015904 0.00013324 0
0.001404 0.00017825 0
0.0015365 0.00020107 0
0.0013627 0.00020398 0
0.0014878 0.00020632 0
0.0013415 0.00021482 0
0.0013991 0.00021971 0
0.0013519 0.00019827 0
0.0013874 0.00015052 0
0.0014223 9.853e-05 0
0.0015406 5.2549e-05 0
0.0015144 2.2278e-05 0
0.0013061 9.7202e-06 0
0.0020952 3.3655e-06 0
0.0017823 5.8359e-07 0
0.00093487 3.4649e-07 0
0.00044092 -6.6908e-07 0
0.00011972 6.6712e-07 0
4.6187e-05 1.7554e-06 0
8.4723e-06 -2.412e-06 0
-8.5345e-07 -2.8758e-07 0
3.6825e-06 2.0853e-06 0
-3.6517e-06 -1.2083e-06 0
0.0017218 -0.000181 0
0.0015673 -0.00024399 0
0.0017955 -0.00020451 0
0.0015026 -0.00013893 0
0.001677 -7.7646e-05 0
0.0015813 -5.8895e-06 0
0.0016384 8.1323e-05 0
0.0015089 0.00014549 0
0.0016204 0.00017145 0
0.001444 0.00019686 0
0.0015615 0.00023661 0
0.0013609 0.00025785 0
0.0014844 0.00025296 0
0.0013494 0.000246 0
0.0013994 0.000249 0
0.0013274 0.00024928 0
0.0013352 0.00021765 0
0.0013623 0.00015875 0
0.0014947 9.7918e-05 0
0.001484 4.565e-05 0
0.0012928 2.0071e-05 0
0.0020914 9.8202e-06 0
0.0017779 -1.1023e-06 0
0.000935 1.2982e-06 0
0.00044221 1.5583e-06 0
0.00011904 -8.3096e-07 0
4.6422e-05 2.2622e-06 0
6.9385e-06 -3.5759e-06 0
1.1367e-07 6.4851e-07 0
5.3286e-06 2.6456e-06 0
-7.2878e-06 -3.3825e-06 0
0.0018296 -0.00041965 0
0.0016454 -0.00033673 0
0.0017939 -0.00023825 0
0.0014489 -0.00014957 0
0.0016007 -7.3296e-05 0
0.0015156 -1.4621e-05 0
0.0016163 5.0916e-05 0
0.0015159 0.00014941 0
0.0016229 0.00023574 0
0.0014521 0.00026262 0
0.0015894 0.00027007 0
0.0013812 0.00029847 0
0.001474 0.00031303 0
0.0013359 0.00029795 0
0.0014025 0.00028266 0
0.0013225 0.00028041 0
0.0012986 0.00027416 0
0.0012966 0.00022936 0
0.0014268 0.00015445 0
0.0014359 8.6911e-05 0
0.0012661 4.0051e-05 0
0.0020817 1.5679e-05 0
0.0017712 3.4007e-06 0
0.00093409 7.5238e-07 0
0.00044521 3.0132e-06 0
0.00011451 -5.1633e-07 0
4.7514e-05 -1.8161e-06 0
8.3784e-06 8.3446e-07 0
-1.7791e-06 1.9146e-07 0
6.6941e-06 -1.2124e-06 0
-9.2897e-06 1.4459e-06 0
0.0014407 -0.00081596 0
0.0012578 -0.00037352 0
0.0014424 -0.00021621 0
0.0011443 -0.00014199 0
0.0013132 -7.9607e-05 0
0.0012266 -1.6865e-05 0
0.0013562 3.1802e-05 0
0.0013526 8.7532e-05 0
0.0015513 0.00019669 0
0.001412 0.00031119 0
0.0015699 0.00034723 0
0.0013949 0.00034155 0
0.0014849 0.00035872 0
0.001314 0.00036276 0
0.0013806 0.00033514 0
0.0013231 0.00031323 0
0.0012851 0.00030941 0
0.0012426 0.0002925 0
0.0013461 0.0002234 0
0.0013651 0.00013969 0
0.0012227 7.5348e-05 0
0.0020582 2.4909e-05 0
0.0017626 9.9065e-06 0
0.00093276 5.2452e-06 0
0.00044407 -9.5363e-07 0
0.00011249 2.3592e-06 0
4.9314e-05 -3.4022e-06 0
9.24e-06 2.8796e-06 0
-2.9821e-06 1.1347e-06 0
6.9703e-06 -4.5084e-06 0
-7.8994e-06 6.2556e-06 0
0.00085869 -0.0006197 0
0.00072022 -0.00043909 0
0.00105 -0.00027061 0
0.0008207 -0.00016556 0
0.0010432 -0.00010946 0
0.00096371 -6.3932e-05 0
0.0010246 -9.6493e-06 0
0.00097397 3.2246e-05 0
0.0012563 8.5599e-05 0
0.0012528 0.00021732 0
0.0014768 0.00036748 0
0.0013475 0.00041545 0
0.001486 0.00040283 0
0.0013126 0.00041297 0
0.0013443 0.00040238 0
0.0012979 0.00036132 0
0.0012845 0.00034066 0
0.0012131 0.00033273 0
0.0012695 0.00029317 0
0.001275 0.00020642 0
0.0011558 0.00011717 0
0.0020185 4.8143e-05 0
0.0017486 1.7755e-05 0
0.00092929 1.1127e-05 0
0.00043871 -2.5184e-06 0
0.00011437 1.4526e-06 0
4.9985e-05 8.9175e-07 0
7.0384e-06 -8.9788e-07 0
-1.6418e-06 1.3992e-06 0
6.2796e-06 -1.8142e-06 0
-6.9008e-06 9.4272e-07 0
0.00090767 -0.00050375 0
0.00070938 -0.00042636 0
0.00090569 -0.00032361 0
0.00065004 -0.00020365 0
0.0008569 -0.00010924 0
0.0008201 -6.1979e-05 0
0.00091173 -3.4982e-05 0
0.00075292 -2.3615e-06 0
0.00087231 1.0775e-05 0
0.00088266 5.2088e-05 0
0.0012441 0.0002167 0
0.0012012 0.00040589 0
0.0014135 0.00046377 0
0.0013046 0.00045062 0
0.0013266 0.00045772 0
0.0012474 0.00042721 0
0.0012641 0.00037976 0
0.0012069 0.00036214 0
0.0012152 0.00034485 0
0.0011754 0.00028122 0
0.001064 0.000167 0
0.0019598 8.1592e-05 0
0.0017247 3.6187e-05 0
0.000919 1.0572e-05 0
0.0004318 2.4553e-06 0
0.00011828 -1.1532e-06 0
4.6717e-05 2.8609e-06 0
6.5733e-06 -1.3715e-06 0
1.0653e-06 -6.4895e-07 0
3.5949e-06 4.3219e-06 0
-5.692e-06 -7.0745e-06 0
0.00075076 -0.00054588 0
0.00054333 -0.00038907 0
0.00076684 -0.00028718 0
0.00049061 -0.00022859 0
0.00069493 -0.00015417 0
0.00061153 -7.1126e-05 0
0.00076082 -1.9836e-05 0
0.0007169 1.0059e-05 0
0.00078165 2.9127e-05 0
0.0005541 -7.0877e-06 0
0.0008558 9.971e-06 0
0.00091408 0.00020811 0
0.0012197 0.00042823 0
0.0012116 0.00048968 0
0.0013156 0.0004865 0
0.0012021 0.00048946 0
0.0012111 0.00043545 0
0.0011961 0.00039122 0
0.0011941 0.00038148 0
0.0010821 0.00034364 0
0.00095127 0.00023088 0
0.0018821 0.00012219 0
0.001682 6.1158e-05 0
0.00090073 1.166e-05 0
0.00042553 7.1069e-06 0
0.00012024 1.7071e-06 0
4.26e-05 -1.4489e-06 0
8.7622e-06 3.7014e-06 0
2.3158e-06 -2.7867e-06 0
-7.164e-08 4.0205e-06 0
-1.5228e-06 -6.2632e-06 0
0.00062801 -0.00042764 0
0.0004505 -0.00039381 0
0.00069278 -0.00028629 0
0.00038468 -0.00019411 0
0.00059864 -0.00015241 0
0.00051123 -0.0001184 0
0.00056818 -6.1842e-05 0
0.00050725 -1.6762e-05 0
0.0007562 3.8697e-05 0
0.00054082 6.4557e-05 0
0.0006085 -2.0806e-05 0
0.0005368 -2.2182e-05 0
0.00090406 0.0002027 0
0.00096263 0.00043173 0
0.0012254 0.0004935 0
0.0011688 0.00051536 0
0.0011431 0.000499 0
0.0011559 0.00043049 0
0.0011885 0.00040778 0
0.0010193 0.00038991 0
0.00082487 0.00029765 0
0.0017838 0.00017476 0
0.0016166 8.3444e-05 0
0.00087298 2.3727e-05 0
0.00042142 1.0454e-05 0
0.00011406 4.3525e-06 0
4.2853e-05 -3.6934e-06 0
9.5604e-06 5.1168e-06 0
4.9014e-07 -1.9009e-06 0
4.6539e-07 -1.431e-06 0
-1.3467e-06 1.6639e-06 0
0.0005695 -0.00043337 0
0.00034872 -0.00031047 0
0.00056111 -0.00027899 0
0.00030712 -0.00020642 0
0.00047188 -0.00011806 0
0.00041325 -7.8337e-05 0
0.00054582 -5.661e-05 0
0.00036702 -3.6092e-05 0
0.00053356 -2.4687e-05 0
0.00048029 5.4768e-05 0
0.00064348 8.594e-05 0
0.00034869 -2.9812e-05 0
0.00058448 -3.151e-05 0
0.0006072 0.0002037 0
0.00094537 0.00040511 0
0.0010793 0.00048815 0
0.0010709 0.00052912 0
0.0010853 0.00048396 0
0.0011656 0.00042966 0
0.00099767 0.00042252 0
0.00070191 0.00035875 0
0.0016587 0.00023259 0
0.0015339 0.00010966 0
0.00083209 4.1264e-05 0
0.00041407 1.6928e-05 0
0.00010207 4.4701e-07 0
4.6843e-05 2.3279e-06 0
8.9929e-06 8.9784e-07 0
-4.0232e-06 6.6896e-07 0
7.617e-06 -2.3989e-06 0
-8.1627e-06 3.857e-06 0
0.00051291 -0.00036849 0
0.00029493 -0.00029398 0
0.00048074 -0.00022411 0
0.00018822 -0.00019494 0
0.00043474 -0.00015165 0
0.00026509 -7.654e-05 0
0.00040507 -5.4381e-05 0
0.00035165 -4.7703e-06 0
0.00045855 -1.1381e-05 0
0.00026253 -2.3819e-05 0
0.00055847 5.8192e-05 0
0.00037727 8.4148e-05 0
0.00045874 -2.9061e-05 0
0.00036372 -4.5588e-06 0
0.00053692 0.00018887 0
0.00081296 0.00035599 0
0.00094368 0.0004802 0
0.00098683 0.00051356 0
0.0010992 0.00045944 0
0.0010032 0.000439 0
0.00060181 0.00041238 0
0.0015083 0.00028769 0
0.0014362 0.00014442 0
0.00077553 5.9891e-05 0
0.00039637 2.3663e-05 0
9.3096e-05 -1.5745e-06 0
4.7981e-05 8.7069e-06 0
7.8237e-06 -3.3898e-06 0
-7.9016e-06 6.1159e-07 0
1.5084e-05 1.0212e-06 0
-1.6423e-05 -1.9732e-06 0
0.00041748 -0.00027833 0
0.00018587 -0.00027448 0
0.00050742 -0.00019861 0
6.6947e-05 -0.00013107 0
0.00033956 -0.00014789 0
0.00025887 -8.5365e-05 0
0.0003104 -5.517e-05 0
0.00019258 -4.3764e-05 0
0.0004191 1.2542e-05 0
0.00023937 6.4308e-06 0
0.0003598 -9.395e-06 0
0.00030023 4.6379e-05 0
0.00040373 5.9526e-05 0
0.00035817 -1.9906e-07 0
0.00029916 3.8492e-05 0
0.00042898 0.00014533 0
0.00066487 0.000308 0
0.00081844 0.00045212 0
0.0009684 0.00047194 0
0.0009964 0.00044475 0
0.00053939 0.0004491 0
0.0013398 0.0003425 0
0.0013225 0.00018025 0
0.00070108 8.2268e-05 0
0.00036976 2.6898e-05 0
8.6029e-05 4.642e-06 0
4.3947e-05 7.2772e-06 0
6.4788e-06 -3.9728e-06 0
-6.7501e-06 1.0978e-06 0
1.466e-05 2.1747e-06 0
-1.7428e-05 -3.7682e-06 0
0.00038087 -0.00034718 0
0.00010348 -0.0001947 0
0.00041238 -0.00015221 0
7.387e-05 -0.00013862 0
0.00024852 -7.3909e-05 0
0.0001498 -9.2706e-05 0
0.00026883 -2.8338e-05 0
0.00017526 -2.3404e-05 0
0.00023579 -1.7455e-05 0
0.00021957 4.3379e-06 0
0.00028428 2.1948e-05 0
0.00023232 8.0933e-06 0
0.00024453 2.4009e-05 0
0.00029715 3.0745e-05 0
0.00032697 5.5245e-05 0
0.00022818 5.8475e-05 0
0.00032851 9.7574e-05 0
0.00051609 0.00025851 0
0.00073503 0.00039395 0
0.00091012 0.00042128 0
0.00050951 0.00045911 0
0.0011614 0.00039264 0
0.001188 0.00021392 0
0.00061134 0.00010573 0
0.00033544 3.0708e-05 0
7.501e-05 1.2168e-05 0
3.8985e-05 3.3022e-06 0
5.2882e-06 -2.3627e-06 0
-3.3105e-06 3.8091e-06 0
8.8209e-06 -3.0664e-06 0
-1.0418e-05 2.1138e-06 0
0.0002952 -0.00017773 0
0.000127 -0.00017621 0
0.0002717 -0.00010137 0
5.7681e-05 -8.3329e-05 0
0.00015063 -2.3792e-05 0
0.00016172 -7.6973e-05 0
0.00013071 -4.7988e-05 0
0.00014322 -1.5609e-05 0
0.00017095 -1.2947e-05 0
0.00016118 1.4611e-06 0
0.00016409 3.6436e-06 0
0.00018365 1.4432e-05 0
0.00023469 2.8288e-05 0
0.00010495 -2.6598e-06 0
0.00027054 2.5761e-05 0
0.00022202 9.2063e-05 0
0.00020427 5.2538e-05 0
0.00023198 6.6187e-05 0
0.00037967 0.00019521 0
0.00067323 0.00030249 0
0.00045073 0.00041723 0
0.00097635 0.00041798 0
0.0010204 0.00024407 0
0.00051411 0.00012408 0
0.00028731 3.8909e-05 0
6.242e-05 1.4493e-05 0
3.3153e-05 3.7544e-06 0
4.6966e-06 -2.2869e-06 0
-2.3809e-06 5.3129e-06 0
5.5324e-06 -7.1897e-06 0
-5.9952e-06 8.0065e-06 0
0.00011406 -0.00014758 0
7.1098e-05 -0.00011223 0
0.00017355 -9.9658e-05 0
3.7109e-05 -8.5947e-05 0
8.4244e-05 -4.9885e-05 0
7.048e-05 -3.1613e-05 0
0.00010313 -1.8667e-05 0
9.0983e-05 -1.8983e-05 0
9.7788e-05 -2.1475e-05 0
8.529e-05 2.0585e-05 0
0.00015787 -1.2147e-05 0
5.0037e-05 6.7109e-06 0
0.00018336 2.1213e-05 0
7.9489e-05 1.0118e-05 0
0.00015451 3.2144e-07 0
0.00011177 4.1259e-05 0
0.00015658 6.2786e-05 0
0.00020371 5.4168e-05 0
0.00010867 5.3393e-05 0
0.00030768 8.1361e-05 0
0.00026986 0.00026837 0
0.00074448 0.00037529 0
0.00079774 0.00025242 0
0.00040626 0.00013106 0
0.0002221 4.7585e-05 0
5.0941e-05 1.3891e-05 0
2.3828e-05 6.136e-06 0
5.6533e-06 -2.7721e-06 0
-4.2405e-06 4.3546e-06 0
6.8554e-06 -4.7247e-06 0
-6.3548e-06 6.1744e-06 0
0.00010535 -0.00010992 0
2.9656e-05 -8.1749e-05 0
0.00010026 -7.193e-05 0
-1.7563e-05 -3.2392e-06 0
6.8765e-05 -2.2416e-05 0
1.5695e-05 -2.064e-05 0
6.44e-05 -2.0458e-05 0
1.5198e-05 3.9671e-06 0
7.0315e-05 -1.2317e-05 0
2.8718e-05 -4.1345e-06 0
7.2817e-05 1.0251e-05 0
2.1289e-05 -3.447e-06 0
0.00011193 5.3118e-06 0
6.0431e-06 6.2122e-06 0
7.6766e-05 1.3154e-05 0
0.00010301 2.5431e-06 0
-8.495e-06 2.8908e-05 0
0.00012866 2.729e-05 0
0.00011604 5.4932e-05 0
6.3631e-05 -4.8584e-06 0
1.3969e-05 3.8432e-05 0
0.00039947 0.0002158 0
0.00046653 0.00018439 0
0.00025785 0.00010605 0
0.00013502 4.4877e-05 0
3.5991e-05 1.2879e-05 0
1.2731e-05 5.3235e-06 0
5.5626e-06 -8.1808e-07 0
-4.5272e-06 1.7109e-06 0
6.4547e-06 -1.0311e-06 0
-6.4723e-06 2.2051e-07 0
0 0 0
0 0 0
0 0 0
0 0 0
0 0 0
0 0 0
0 0 0
0 0 0
0 0 0
0 0 0
0 0 0
0 0 0
0 0 0
0 0 0
0 0 0
0 0 0
0 0 0
0 0 0
0 0 0
0 0 0
0 0 0
0 0 0
0 0 0
0 0 0
0 0 0
0 0 0
0 0 0
0 0 0
0 0 0
0 0 0
0 0 0
0.0015056 -0.00041407 0
0.001425 -0.00032566 0
0.0015224 -0.00040043 0
0.0014679 -0.00037778 0
0.0016173 -0.00046618 0
0.0014348 -0.00029698 0
0.0015337 -0.00053158 0
0.0014774 -0.00052918 0
0.00147 -0.00038649 0
0.0015249 -0.00046896 0
0.0015359 -0.00031365 0
0.0015124 -0.00046152 0
0.0014903 -0.00026105 0
0.0015061 -0.00034448 0
0.0015036 -0.00039103 0
0.0015403 -0.00037065 0
0.0015491 -0.00038537 0
0.0015127 -0.00037801 0
0.0014874 -0.00039288 0
0.0014602 -0.00040085 0
0.0015193 -0.00037769 0
0.001541 -0.00039983 0
0.0015885 -0.00039984 0
0.0015468 -0.00040692 0
0.0015139 -0.00037844 0
0.0014758 -0.0003612 0
0.0014996 -0.00035885 0
0.0015228 -0.0003845 0
0.0015461 -0.00045082 0
0.0015793 -0.00045615 0
0.0015662 -0.00040347 0
0.0015571 -0.00037365 0
0.0015026 -0.00037391 0
0.0015288 -0.00040978 0
0.0015028 -0.00043802 0
0.0016089 -0.00045572 0
0.0015645 -0.0004131 0
0.0015888 -0.00049755 0
0.0015459 -0.0005315 0
0.0016031 -0.00049533 0
0.0015559 -0.00050215 0
0.0016556 -0.00049621 0
0.0015932 -0.00050824 0
0.0017216 -0.00050503 0
0.0016577 -0.00047424 0
0.0016493 -0.00049553 0
0.001627 -0.00046066 0
0.0016669 -0.00046477 0
0.0016624 -0.00045512 0
0.0017286 -0.00046075 0
0.0017338 -0.00046543 0
0.0017124 -0.00047705 0
0.0017016 -0.00046599 0
0.0017343 -0.00044237 0
0.0016921 -0.00043844 0
0.0018212 -0.00044208 0
0.0017152 -0.00043404 0
0.0017881 -0.00043464 0
0.001571 -0.0004586 0
0.0017378 -0.00049628 0
0.0016745 -0.00050605 0
0.0019226 -0.00046429 0
0.002126 -0.00050306 0
0.0019183 -0.00046242 0
0.0022436 -0.00050301 0
0.0017339 -0.00034691 0
0.0020303 -0.00033675 0
0.0013798 -0.00037396 0
0.00091891 -0.00017704 0
0.0012125 -0.00018481 0
0.00065838 -0.00017639 0
0.00040198 -6.8819e-05 0
0.00057119 -7.9603e-05 0
0.00024081 -7.6134e-05 0
0.00012135 -2.5431e-05 0
0.00020719 -2.8766e-05 0
5.9159e-05 -1.9196e-05 0
3.83e-05 -2.4835e-06 0
5.3101e-05 -7.9503e-06 0
2.3789e-05 -6.7699e-06 0
6.7301e-06 -4.7543e-06 0
1.8306e-05 -2.082e-06 0
-2.0702e-06 -9.9766e-07 0
1.916e-06 2.6077e-06 0
7.2173e-07 -5.3362e-07 0
3.9311e-06 -3.5073e-07 0
5.9075e-07 -2.1209e-06 0
8.7586e-07 -1.4713e-08 0
-6.9313e-07 -3.8053e-08 0
6.4935e-07 1.3712e-06 0
3.6293e-07 9.6361e-09 0
0.0013968 -0.00031649 0
0.0015268 -0.00045514 0
0.0015037 -0.00036865 0
0.0014542 -0.00030794 0
0.0015289 -0.00046967 0
0.0015654 -0.00040414 0
0.0015019 -0.00042307 0
0.0014437 -0.00044173 0
0.0015031 -0.00027447 0
0.0015336 -0.00039255 0
0.0015213 -0.00033885 0
0.0015099 -0.00035312 0
0.0015262 -0.0003991 0
0.0015281 -0.00039157 0
0.0015056 -0.00038821 0
0.0015458 -0.00037938 0
0.0015251 -0.0003799 0
0.0015034 -0.00038754 0
0.0015534 -0.0003705 0
0.0016012 -0.00041311 0
0.0015367 -0.00040478 0
0.001502 -0.00039718 0
0.0015536 -0.00039873 0
0.0016415 -0.00045604 0
0.0015968 -0.00043045 0
0.0015668 -0.00050839 0
0.0015941 -0.00047622 0
0.0016305 -0.00049087 0
0.0015902 -0.00049011 0
0.0016723 -0.00048209 0
0.0016833 -0.00050561 0
0.0016593 -0.00047444 0
0.001645 -0.00046083 0
0.0017068 -0.00042086 0
0.0016676 -0.00043754 0
0.0017461 -0.00046371 0
0.0017262 -0.00046773 0
0.0017929 -0.00049627 0
0.0018976 -0.00049261 0
0.001692 -0.00045161 0
0.001575 -0.00042656 0
0.0019143 -0.0003217 0
0.0016918 -0.00030073 0
0.0015783 -0.00018241 0
0.0018708 -0.0001821 0
0.0008445 -8.6193e-05 0
0.0011499 -9.8934e-05 0
0.00038055 -2.9434e-05 0
0.00057205 -4.2871e-05 0
0.00011729 -1.2251e-05 0
0.0002045 -1.5456e-05 0
3.7587e-05 -1.6939e-08 0
6.2179e-05 -5.2242e-06 0
7.2514e-06 -2.3397e-06 0
1.3922e-05 -4.4064e-07 0
1.6467e-06 7.3194e-07 0
5.1658e-06 -1.0013e-06 0
7.2883e-07 3.0237e-07 0
-7.9285e-07 5.0701e-07 0
-1.9977e-06 -2.4172e-07 0
1.759e-06 -2.1006e-07 0
0.0014236 -0.00032986 0
0.0015581 -0.00040372 0
0.0014475 -0.00035232 0
0.0014406 -0.00032218 0
0.0015365 -0.00040262 0
0.001544 -0.00039594 0
0.0015491 -0.00041594 0
0.0014602 -0.00044598 0
0.0014778 -0.00032616 0
0.001508 -0.00036634 0
0.0015313 -0.00035912 0
0.001517 -0.00034882 0
0.001509 -0.00040328 0
0.0015329 -0.00038218 0
0.0015095 -0.00038034 0
0.0015508 -0.0003887 0
0.0015432 -0.00036926 0
0.0014994 -0.00036962 0
0.0015343 -0.00036438 0
0.0016139 -0.00041081 0
0.0015525 -0.00040908 0
0.0015211 -0.00041498 0
0.0015813 -0.00040328 0
0.0016376 -0.00043196 0
0.0015638 -0.00041016 0
0.0015688 -0.0004965 0
0.0016117 -0.00047521 0
0.0016629 -0.00050526 0
0.0016425 -0.00050253 0
0.0016532 -0.00046579 0
0.0016238 -0.00046415 0
0.0016205 -0.00043843 0
0.0016337 -0.00045911 0
0.0017792 -0.00048394 0
0.0017521 -0.00048567 0
0.0017903 -0.00049274 0
0.0017718 -0.00048903 0
0.0016945 -0.00041433 0
0.0017693 -0.00038939 0
0.0014802 -0.00027936 0
0.00135 -0.00026444 0
0.001753 -0.00017383 0
0.0015376 -0.00017104 0
0.0015218 -0.00010664 0
0.0018167 -0.00011133 0
0.00084509 -5.1806e-05 0
0.0011644 -6.8904e-05 0
0.00039292 -1.9558e-05 0
0.00059312 -2.912e-05 0
0.00012314 -9.1816e-06 0
0.00021242 -1.265e-05 0
4.1088e-05 7.2568e-08 0
7.0483e-05 -3.3744e-06 0
7.3674e-06 -7.836e-07 0
1.1341e-05 -5.5645e-07 0
2.2388e-06 -1.5317e-06 0
8.5315e-06 -7.2543e-07 0
8.0958e-07 2.6178e-06 0
-3.865e-06 3.9941e-07 0
-3.9561e-07 -4.4713e-06 0
2.4252e-06 -2.8194e-07 0
0.0013925 -0.00037004 0
0.0015561 -0.0003749 0
0.0014065 -0.00034546 0
0.0013534 -0.00034735 0
0.0015886 -0.00040495 0
0.0015823 -0.00041044 0
0.0015359 -0.00039458 0
0.0014343 -0.0004034 0
0.0014649 -0.00026561 0
0.001547 -0.00034747 0
0.0015303 -0.00037904 0
0.0015418 -0.00036065 0
0.0015063 -0.00041135 0
0.0015042 -0.00037566 0
0.0014997 -0.00034533 0
0.0015509 -0.0003718 0
0.0015507 -0.00037036 0
0.0015215 -0.00038903 0
0.0015544 -0.00038327 0
0.0016165 -0.00039688 0
0.001527 -0.00038069 0
0.001499 -0.00039496 0
0.0015886 -0.00040056 0
0.0016738 -0.00045868 0
0.0015847 -0.00042527 0
0.0015746 -0.00048275 0
0.0016256 -0.00047132 0
0.0016343 -0.0004681 0
0.0015909 -0.00045503 0
0.0016552 -0.00046522 0
0.0016426 -0.00048295 0
0.0017029 -0.00050197 0
0.0017417 -0.00051133 0
0.0017879 -0.0004904 0
0.0017381 -0.00047167 0
0.0016558 -0.00037615 0
0.0016143 -0.00036555 0
0.0014924 -0.00024351 0
0.0015657 -0.0002299 0
0.001332 -0.00016143 0
0.0012139 -0.00016069 0
0.001702 -0.00011647 0
0.0014919 -0.00011751 0
0.0015292 -7.8533e-05 0
0.0018242 -8.9024e-05 0
0.0008727 -4.1535e-05 0
0.0011986 -5.4337e-05 0
0.00040788 -1.3072e-05 0
0.00061507 -2.3353e-05 0
0.00013135 -9.0234e-06 0
0.00022084 -9.9351e-06 0
4.2956e-05 1.4716e-06 0
7.6631e-05 -2.2288e-06 0
8.4876e-06 -1.4961e-06 0
1.0008e-05 -8.9128e-07 0
2.0485e-06 -3.1826e-07 0
1.0725e-05 -4.2758e-08 0
5.9774e-07 2.6572e-06 0
-3.2358e-06 -1.1946e-07 0
6.68e-07 -2.9588e-06 0
2.9084e-09 9.0251e-08 0
0.0013552 -0.0003707 0
0.0015695 -0.00036416 0
0.0014637 -0.00039601 0
0.0013363 -0.00036107 0
0.0015907 -0.00034966 0
0.0015886 -0.00039609 0
0.0015601 -0.00034698 0
0.0014959 -0.00038769 0
0.0014447 -0.00033777 0
0.0015437 -0.00033052 0
0.0014934 -0.00040994 0
0.0014887 -0.00035578 0
0.001512 -0.0003608 0
0.0015378 -0.0003878 0
0.001527 -0.00034824 0
0.0015534 -0.00036583 0
0.0015535 -0.00037995 0
0.0015092 -0.00037341 0
0.0015085 -0.00035191 0
0.0016124 -0.00038829 0
0.0015625 -0.00039466 0
0.0015353 -0.00042265 0
0.0016153 -0.00040681 0
0.0016515 -0.00043879 0
0.0015395 -0.00040936 0
0.0015503 -0.00044155 0
0.0016098 -0.00044207 0
0.0016714 -0.00049682 0
0.0016364 -0.00048676 0
0.0017311 -0.00052009 0
0.0017342 -0.00053206 0
0.0016778 -0.00047444 0
0.0016912 -0.00045564 0
0.0016191 -0.00034892 0
0.0015488 -0.00033548 0
0.0014777 -0.00021968 0
0.0014405 -0.00021829 0
0.0013685 -0.00014635 0
0.00146 -0.00014517 0
0.0012871 -0.00012253 0
0.0011753 -0.00012381 0
0.0017046 -9.7036e-05 0
0.0014923 -0.00010086 0
0.0015593 -6.5347e-05 0
0.0018547 -7.8317e-05 0
0.0009007 -3.2979e-05 0
0.0012295 -4.2879e-05 0
0.00042187 -1.0984e-05 0
0.00063723 -1.9566e-05 0
0.0001382 -5.8445e-06 0
0.00022555 -6.9001e-06 0
4.4235e-05 5.713e-07 0
8.2355e-05 -1.7409e-06 0
9.4289e-06 -1.4831e-06 0
9.5118e-06 -9.4889e-07 0
2.0089e-06 5.3544e-07 0
9.3722e-06 5.5018e-07 0
1.3158e-06 -1.7694e-06 0
-9.1871e-07 -6.4768e-07 0
2.5456e-07 2.735e-06 0
1.7038e-06 3.4375e-07 0
0.0013328 -0.00038579 0
0.0015685 -0.0003589 0
0.0014393 -0.00035345 0
0.001324 -0.00037474 0
0.0015951 -0.00036966 0
0.0016277 -0.00037876 0
0.001526 -0.00037078 0
0.0014976 -0.0003416 0
0.0014067 -0.00037718 0
0.0015011 -0.00033945 0
0.0015248 -0.00036309 0
0.0015195 -0.00038677 0
0.0015358 -0.00034672 0
0.0015228 -0.00035995 0
0.0015089 -0.00036091 0
0.0015401 -0.00034624 0
0.0015185 -0.00034765 0
0.0015228 -0.00038692 0
0.0015479 -0.00037304 0
0.001631 -0.0003977 0
0.0015841 -0.00039865 0
0.0014997 -0.0003967 0
0.0015376 -0.00036667 0
0.0016305 -0.00040954 0
0.0015455 -0.00041127 0
0.001624 -0.0004987 0
0.0016942 -0.00048699 0
0.0017185 -0.00053505 0
0.0016797 -0.00051961 0
0.0016699 -0.00045244 0
0.0016504 -0.00044633 0
0.0014972 -0.00032248 0
0.0014955 -0.00030642 0
0.0014563 -0.000208 0
0.0013948 -0.00021023 0
0.0013897 -0.0001428 0
0.0013673 -0.00014521 0
0.0013301 -0.00011831 0
0.001435 -0.00012239 0
0.0012881 -0.00011162 0
0.001171 -0.00011175 0
0.0017252 -8.6768e-05 0
0.001511 -9.3821e-05 0
0.001594 -5.4078e-05 0
0.0018902 -6.6729e-05 0
0.00092391 -2.4811e-05 0
0.0012558 -3.3738e-05 0
0.00043439 -1.0275e-05 0
0.00065549 -1.5439e-05 0
0.00014268 -1.9765e-06 0
0.00022978 -4.4606e-06 0
4.5788e-05 -1.7154e-06 0
8.5011e-05 -1.6049e-06 0
9.7851e-06 5.9407e-07 0
1.1136e-05 -5.0088e-07 0
1.6978e-06 1.6463e-06 0
9.0697e-06 3.4181e-07 0
1.507e-06 -4.1312e-06 0
-3.453e-06 -3.5486e-07 0
-1.1847e-06 2.7704e-06 0
1.6633e-06 1.7596e-07 0
0.0013438 -0.00036291 0
0.0015609 -0.00037962 0
0.0014215 -0.0003875 0
0.0013346 -0.0003528 0
0.0015951 -0.00035794 0
0.0016424 -0.00033848 0
0.001516 -0.000356 0
0.0014878 -0.00034957 0
0.0014312 -0.0003489 0
0.0015069 -0.00037215 0
0.0015225 -0.00034506 0
0.0014983 -0.00035104 0
0.0015085 -0.00034788 0
0.0015149 -0.00033606 0
0.0014948 -0.0003432 0
0.0015696 -0.00037617 0
0.0015517 -0.00036079 0
0.0015118 -0.00037905 0
0.0015464 -0.00037526 0
0.0015913 -0.00036357 0
0.0015063 -0.00034946 0
0.0014971 -0.00038932 0
0.0015604 -0.00038391 0
0.0017147 -0.00047854 0
0.0016465 -0.00047023 0
0.0016461 -0.00052411 0
0.0016942 -0.00049326 0
0.0016114 -0.00043153 0
0.0015556 -0.00041941 0
0.0014989 -0.00029832 0
0.0014705 -0.00029215 0
0.0013496 -0.00020037 0
0.0013605 -0.00019915 0
0.001395 -0.00014696 0
0.0013453 -0.00015364 0
0.001368 -0.00012237 0
0.0013553 -0.00012549 0
0.001328 -0.00011325 0
0.0014371 -0.00011781 0
0.0013019 -0.00010426 0
0.0011765 -0.00010506 0
0.0017538 -7.6552e-05 0
0.0015394 -8.5893e-05 0
0.0016262 -4.2518e-05 0
0.001924 -5.3678e-05 0
0.00094297 -1.8765e-05 0
0.0012803 -2.6523e-05 0
0.00044451 -7.8737e-06 0
0.00066578 -1.0772e-05 0
0.00014556 -3.2771e-07 0
0.00023745 -3.245e-06 0
4.7118e-05 -2.2521e-06 0
8.2917e-05 -1.0783e-06 0
1.0051e-05 -5.84e-08 0
1.2908e-05 -4.7954e-08 0
1.9202e-06 1.5871e-06 0
1.1066e-05 -3.331e-07 0
1.263e-06 -1.8134e-07 0
-4.1582e-06 3.3201e-07 0
-1.6928e-06 1.5152e-06 0
3.227e-06 -2.6718e-07 0
0.0013498 -0.00035891 0
0.0015658 -0.0003437 0
0.0014598 -0.00036336 0
0.0013511 -0.00035394 0
0.001577 -0.00035945 0
0.001619 -0.00036328 0
0.0015155 -0.00035129 0
0.0014749 -0.00036079 0
0.0014148 -0.00034795 0
0.0014832 -0.00033827 0
0.0015088 -0.00034429 0
0.0015007 -0.00033527 0
0.001514 -0.00033752 0
0.0015393 -0.00036175 0
0.001509 -0.00034928 0
0.0015401 -0.0003583 0
0.0015264 -0.00035253 0
0.0014715 -0.0003442 0
0.0014882 -0.00033787 0
0.0016145 -0.00037689 0
0.0015443 -0.00037112 0
0.0015694 -0.00045176 0
0.0016487 -0.00044037 0
0.0017071 -0.00048825 0
0.0016085 -0.00045532 0
0.0015094 -0.00040436 0
0.001543 -0.00038416 0
0.0014478 -0.00027881 0
0.0013939 -0.00027705 0
0.0013803 -0.00019651 0
0.0013626 -0.00019666 0
0.0013008 -0.00015356 0
0.0013243 -0.00015903 0
0.0013908 -0.0001304 0
0.0013456 -0.00013576 0
0.0013681 -0.00011826 0
0.0013619 -0.00012214 0
0.0013371 -0.00011141 0
0.0014414 -0.00011407 0
0.0013219 -9.4582e-05 0
0.0011942 -9.8675e-05 0
0.0017864 -6.4252e-05 0
0.0015693 -7.376e-05 0
0.0016536 -3.2074e-05 0
0.0019563 -4.1627e-05 0
0.00095869 -1.3631e-05 0
0.0013003 -1.9744e-05 0
0.0004516 -5.2934e-06 0
0.0006712 -6.8274e-06 0
0.00014787 -7.6509e-07 0
0.00024535 -2.655e-06 0
4.7764e-05 4.36e-07 0
8.0347e-05 -4.2509e-07 0
1.0071e-05 -1.0691e-06 0
1.4455e-05 9.9644e-08 0
2.2489e-06 -1.2107e-06 0
9.1018e-06 -4.7382e-07 0
1.2446e-06 8.7915e-07 0
-2.9268e-06 4.9168e-07 0
-4.7604e-07 -2.3216e-06 0
1.5665e-06 -3.4411e-07 0
0.0013211 -0.00036293 0
0.0015225 -0.00038104 0
0.0013999 -0.00036626 0
0.0013142 -0.00035928 0
0.0015757 -0.00035875 0
0.0015991 -0.00034526 0
0.0015048 -0.0003467 0
0.001471 -0.0003284 0
0.0014157 -0.00033799 0
0.0014916 -0.00033374 0
0.0015072 -0.00032872 0
0.0015026 -0.00034772 0
0.0015005 -0.00033599 0
0.0015032 -0.00033915 0
0.0014742 -0.00033631 0
0.0015112 -0.00033441 0
0.0014965 -0.00033008 0
0.0015064 -0.00036785 0
0.0015313 -0.00035998 0
0.0016643 -0.00042119 0
0.0015979 -0.00040762 0
0.0015261 -0.00044032 0
0.0015757 -0.00040824 0
0.0015592 -0.00036954 0
0.0014492 -0.00034761 0
0.0013583 -0.00026292 0
0.001403 -0.00026057 0
0.0013566 -0.00019418 0
0.0013143 -0.00019712 0
0.0013453 -0.00016204 0
0.0013372 -0.00016537 0
0.0013035 -0.00014056 0
0.00133 -0.00014624 0
0.0013991 -0.0001242 0
0.0013589 -0.00012934 0
0.0013742 -0.00011744 0
0.0013681 -0.00012 0
0.0013515 -0.00010681 0
0.0014499 -0.00010908 0
0.0013483 -8.1587e-05 0
0.0012219 -8.8867e-05 0
0.0018182 -5.0653e-05 0
0.0015985 -5.9007e-05 0
0.001676 -2.3348e-05 0
0.0019854 -3.1115e-05 0
0.00097086 -9.0041e-06 0
0.0013137 -1.3386e-05 0
0.00045618 -2.9216e-06 0
0.00067687 -4.3403e-06 0
0.00014975 -2.1808e-06 0
0.00024777 -1.6525e-06 0
4.8111e-05 1.0685e-06 0
8.0856e-05 -3.6556e-07 0
1.0079e-05 9.2654e-07 0
1.704e-05 1.8824e-08 0
2.1765e-06 -7.1141e-07 0
5.7527e-06 -9.0802e-08 0
8.3647e-07 1.6113e-06 0
7.7764e-08 8.1261e-08 0
-3.7596e-07 -7.6249e-07 0
-6.3725e-08 -3.2794e-08 0
0.0013313 -0.00035297 0
0.0015755 -0.00034563 0
0.0014408 -0.00036479 0
0.0013295 -0.00033872 0
0.0015808 -0.00033894 0
0.0016106 -0.00032757 0
0.0015045 -0.00032875 0
0.0014704 -0.00033358 0
0.0013959 -0.00032067 0
0.0014713 -0.00033497 0
0.0014812 -0.00032607 0
0.0014704 -0.00032473 0
0.0014772 -0.00032445 0
0.001493 -0.00032777 0
0.0014655 -0.00032141 0
0.0015406 -0.0003552 0
0.0015256 -0.0003442 0
0.0015215 -0.00038721 0
0.0015364 -0.00037197 0
0.0015907 -0.00039045 0
0.0014984 -0.00036297 0
0.0013791 -0.00033271 0
0.0014252 -0.00031226 0
0.0014308 -0.00024853 0
0.0013378 -0.00024652 0
0.0012903 -0.00019426 0
0.0013477 -0.00019735 0
0.0013354 -0.00016888 0
0.0012999 -0.00017256 0
0.0013508 -0.00015175 0
0.0013445 -0.00015524 0
0.0013173 -0.0001328 0
0.0013463 -0.0001383 0
0.0014075 -0.00012116 0
0.0013708 -0.00012538 0
0.001384 -0.00011552 0
0.0013728 -0.00011637 0
0.001372 -9.6686e-05 0
0.0014686 -0.00010094 0
0.0013789 -6.6604e-05 0
0.0012525 -7.4461e-05 0
0.0018462 -3.6821e-05 0
0.0016286 -4.4397e-05 0
0.0016937 -1.6196e-05 0
0.0020062 -2.158e-05 0
0.00097939 -6.1628e-06 0
0.0013232 -8.5089e-06 0
0.00045913 -2.8838e-07 0
0.00068289 -2.8478e-06 0
0.00015085 -1.747e-06 0
0.00024585 -5.0167e-07 0
4.8457e-05 -1.0197e-06 0
8.2381e-05 -4.8504e-07 0
1.0284e-05 6.0987e-07 0
1.7808e-05 -9.6879e-09 0
2.309e-06 -7.6589e-07 0
5.0278e-06 5.7721e-08 0
1.1756e-06 5.5863e-07 0
1.7912e-06 -2.1228e-07 0
-4.6687e-07 5.1419e-07 0
6.0179e-07 1.1125e-07 0
0.001333 -0.00035265 0
0.0015223 -0.00037049 0
0.0014241 -0.00035882 0
0.0013097 -0.00033392 0
0.0015458 -0.00033617 0
0.0015796 -0.00033183 0
0.0014633 -0.00032257 0
0.0014335 -0.00031918 0
0.0013664 -0.00031898 0
0.0014473 -0.00031158 0
0.0014616 -0.00031212 0
0.0014645 -0.00031949 0
0.0014605 -0.00030926 0
0.0014957 -0.00033602 0
0.0014576 -0.00032418 0
0.0015141 -0.00035173 0
0.0014834 -0.00033771 0
0.0014279 -0.0003463 0
0.0014263 -0.00032446 0
0.0014589 -0.00029997 0
0.0013735 -0.00028381 0
0.001279 -0.00023604 0
0.0013466 -0.00023477 0
0.0013854 -0.00019529 0
0.0013043 -0.00019829 0
0.0012795 -0.00017563 0
0.0013418 -0.00017874 0
0.0013435 -0.00016061 0
0.0013087 -0.00016339 0
0.0013663 -0.0001421 0
0.0013618 -0.00014606 0
0.0013294 -0.00012672 0
0.0013613 -0.00013159 0
0.0014159 -0.00012017 0
0.001377 -0.00012175 0
0.0013993 -0.00010783 0
0.0013852 -0.00010968 0
0.0013989 -8.1676e-05 0
0.0014946 -8.7326e-05 0
0.0014094 -5.0801e-05 0
0.0012835 -5.7605e-05 0
0.001869 -2.4277e-05 0
0.0016561 -3.1143e-05 0
0.0017066 -1.061e-05 0
0.0020185 -1.3626e-05 0
0.000985 -4.3203e-06 0
0.0013308 -5.1615e-06 0
0.0004611 1.9426e-07 0
0.00068626 -1.7588e-06 0
0.00015121 1.4757e-07 0
0.00024565 -1.0155e-07 0
4.857e-05 -3.7951e-07 0
8.2982e-05 -2.36e-07 0
1.0305e-05 -6.3174e-08 0
1.5996e-05 5.4607e-08 0
2.2359e-06 -6.5654e-07 0
6.3734e-06 1.7399e-08 0
1.2031e-06 -8.6758e-07 0
-7.1025e-07 -7.8435e-08 0
-5.8623e-07 -9.0392e-07 0
5.2688e-07 7.0107e-08 0
0.0012525 -0.00033662 0
0.0014288 -0.0003467 0
0.0013583 -0.0004184 0
0.0012497 -0.00031861 0
0.0014614 -0.00031516 0
0.0015352 -0.00029854 0
0.001406 -0.00030201 0
0.0014079 -0.00030041 0
0.001318 -0.00029431 0
0.0014217 -0.00030911 0
0.0014136 -0.00029554 0
0.0014288 -0.00031286 0
0.001415 -0.00030375 0
0.0014391 -0.00031895 0
0.0013919 -0.00030841 0
0.0014216 -0.00031231 0
0.0013881 -0.00029569 0
0.0013252 -0.00027509 0
0.0013408 -0.00026427 0
0.001391 -0.00022687 0
0.0013279 -0.00022699 0
0.0012536 -0.00019672 0
0.0013312 -0.00019974 0
0.0013828 -0.00018171 0
0.0013044 -0.00018403 0
0.0012893 -0.00016806 0
0.0013518 -0.00016983 0
0.0013599 -0.00014973 0
0.0013263 -0.00015245 0
0.0013805 -0.00013236 0
0.0013792 -0.0001369 0
0.0013386 -0.00012456 0
0.0013688 -0.00012652 0
0.0014278 -0.00011527 0
0.001386 -0.000116 0
0.0014219 -9.3248e-05 0
0.0014076 -9.7026e-05 0
0.0014289 -6.3839e-05 0
0.0015238 -6.914e-05 0
0.0014362 -3.4908e-05 0
0.001313 -4.0874e-05 0
0.0018862 -1.5367e-05 0
0.0016757 -1.9981e-05 0
0.0017151 -6.0349e-06 0
0.0020271 -8.0318e-06 0
0.00098844 -2.0396e-06 0
0.0013355 -2.743e-06 0
0.00046243 -1.3787e-06 0
0.00068637 -9.7172e-07 0
0.00015146 6.0117e-07 0
0.00024793 -2.3195e-07 0
4.8581e-05 3.8859e-07 0
8.3e-05 6.458e-08 0
1.0253e-05 1.1195e-08 0
1.4989e-05 -7.87e-08 0
2.0794e-06 1.3526e-06 0
8.6971e-06 5.2759e-08 0
1.0093e-06 5.2367e-07 0
-2.5767e-06 8.3695e-08 0
-5.3072e-07 3.0498e-07 0
1.5687e-06 3.789e-08 0
0.0011882 -0.00031642 0
0.0013884 -0.00030865 0
0.0012782 -0.0003379 0
0.0011943 -0.00029661 0
0.001425 -0.00030251 0
0.0014886 -0.0003017 0
0.0013627 -0.00029607 0
0.0013531 -0.00030097 0
0.0012752 -0.0002959 0
0.0013646 -0.00029232 0
0.001372 -0.00029292 0
0.0013724 -0.00029548 0
0.0013665 -0.00028995 0
0.0013708 -0.00029098 0
0.0013367 -0.00027962 0
0.0013554 -0.00025953 0
0.0013471 -0.00025396 0
0.0012879 -0.00022141 0
0.0013234 -0.00022314 0
0.0013816 -0.0001988 0
0.0013249 -0.00020128 0
0.0012572 -0.00018672 0
0.0013352 -0.00018796 0
0.001394 -0.00017355 0
0.0013157 -0.00017398 0
0.001306 -0.00015537 0
0.0013697 -0.00015668 0
0.0013753 -0.00013715 0
0.0013443 -0.00014093 0
0.0013907 -0.00012813 0
0.0013882 -0.00013028 0
0.0013488 -0.00012074 0
0.0013761 -0.00012065 0
0.0014469 -0.000102 0
0.0014046 -0.000104 0
0.0014501 -7.4257e-05 0
0.0014356 -7.8098e-05 0
0.0014573 -4.4595e-05 0
0.0015537 -4.9547e-05 0
0.0014571 -2.1598e-05 0
0.0013358 -2.6228e-05 0
0.001898 -9.8342e-06 0
0.0016878 -1.1677e-05 0
0.0017202 -2.5351e-06 0
0.0020341 -4.4586e-06 0
0.00099028 -4.9347e-07 0
0.0013371 -1.2184e-06 0
0.00046308 -1.4627e-06 0
0.00068608 -4.6763e-07 0
0.00015174 4.3827e-07 0
0.00024904 -2.0595e-07 0
4.8689e-05 -4.8787e-07 0
8.2594e-05 1.158e-07 0
1.0362e-05 -7.278e-07 0
1.5081e-05 -1.7286e-07 0
2.2429e-06 2.6445e-07 0
9.2036e-06 5.7095e-08 0
1.1918e-06 -3.985e-07 0
-2.2078e-06 -7.8068e-08 0
-3.2893e-07 2.1827e-07 0
1.7305e-06 -2.3644e-08 0
0.0011765 -0.00030012 0
0.0014186 -0.00028298 0
0.00128 -0.00028284 0
0.0011729 -0.00030382 0
0.0014386 -0.00028937 0
0.0014585 -0.00029222 0
0.0013697 -0.00028882 0
0.0013278 -0.00027944 0
0.001272 -0.00027924 0
0.001344 -0.00028373 0
0.001363 -0.00027517 0
0.001343 -0.00027938 0
0.0013565 -0.00026874 0
0.001342 -0.00024984 0
0.0013309 -0.00024654 0
0.0013438 -0.00021798 0
0.0013466 -0.00021964 0
0.0012902 -0.00020067 0
0.0013258 -0.00020173 0
0.001389 -0.00019014 0
0.001331 -0.00018972 0
0.0012695 -0.00017653 0
0.0013478 -0.00017537 0
0.0014106 -0.00015804 0
0.0013341 -0.00015816 0
0.0013215 -0.00014031 0
0.0013871 -0.00014313 0
0.0013859 -0.00013117 0
0.0013533 -0.00013297 0
0.0014002 -0.00012444 0
0.001395 -0.0001238 0
0.0013654 -0.00010796 0
0.0013925 -0.00010843 0
0.0014729 -8.205e-05 0
0.0014304 -8.4206e-05 0
0.0014789 -5.276e-05 0
0.0014652 -5.6142e-05 0
0.0014806 -2.7443e-05 0
0.001579 -3.176e-05 0
0.0014716 -1.2704e-05 0
0.0013502 -1.5137e-05 0
0.0019052 -5.2689e-06 0
0.0016956 -6.1805e-06 0
0.0017231 -1.1578e-06 0
0.0020379 -2.2398e-06 0
0.00099123 -3.8887e-07 0
0.0013377 -5.8586e-07 0
0.00046324 -3.2952e-08 0
0.00068707 -1.2308e-07 0
0.00015182 1.4747e-07 0
0.00024835 -9.4414e-08 0
4.8656e-05 -9.1314e-08 0
8.2678e-05 2.2377e-08 0
1.0304e-05 2.4416e-07 0
1.5299e-05 2.3013e-08 0
2.2695e-06 -5.7727e-07 0
7.5583e-06 4.1212e-08 0
1.1423e-06 -7.0667e-07 0
-1.311e-06 -8.6084e-08 0
-6.3879e-07 3.0951e-07 0
1.0894e-06 -5.9667e-09 0
0.0012121 -0.0002682 0
0.0014461 -0.00024562 0
0.0013145 -0.00025705 0
0.0012018 -0.00026774 0
0.0014674 -0.00025612 0
0.0014815 -0.00026703 0
0.001389 -0.0002566 0
0.0013415 -0.00027342 0
0.0012895 -0.00025958 0
0.0013454 -0.00026709 0
0.0013803 -0.00025743 0
0.0013412 -0.00024038 0
0.001367 -0.00023883 0
0.0013455 -0.00021534 0
0.0013344 -0.00021635 0
0.0013504 -0.00020208 0
0.0013494 -0.00020117 0
0.0012985 -0.00019123 0
0.0013336 -0.00018857 0
0.0014019 -0.00017609 0
0.0013456 -0.00017305 0
0.0012859 -0.00015743 0
0.0013665 -0.00015655 0
0.0014255 -0.00014135 0
0.0013498 -0.00014332 0
0.0013318 -0.00013336 0
0.0013952 -0.00013436 0
0.0013951 -0.00012686 0
0.00136 -0.00012546 0
0.0014156 -0.00011124 0
0.0014105 -0.00011042 0
0.0013897 -8.6702e-05 0
0.0014171 -8.7209e-05 0
0.0015011 -5.8264e-05 0
0.0014589 -6.0062e-05 0
0.0015033 -3.2377e-05 0
0.0014911 -3.5578e-05 0
0.0014972 -1.581e-05 0
0.0015957 -1.8064e-05 0
0.0014805 -6.6475e-06 0
0.0013592 -7.8731e-06 0
0.0019092 -1.8602e-06 0
0.0017003 -2.8878e-06 0
0.0017247 -1.2685e-06 0
0.0020388 -1.0104e-06 0
0.00099172 -1.457e-07 0
0.0013384 -3.4421e-07 0
0.00046336 4.5876e-07 0
0.00068787 5.6789e-08 0
0.00015185 -7.0017e-07 0
0.00024752 -8.8841e-08 0
4.8634e-05 4.6332e-07 0
8.3414e-05 -4.7901e-08 0
1.0206e-05 6.7079e-07 0
1.5805e-05 1.1254e-07 0
2.1731e-06 2.1859e-08 0
6.6751e-06 -3.8791e-08 0
1.1183e-06 4.955e-07 0
-6.3376e-07 1.017e-07 0
-7.8524e-07 3.6811e-07 0
1.1075e-06 -2.7639e-08 0
0.0012315 -0.00024365 0
0.0014595 -0.00023262 0
0.0013325 -0.00022685 0
0.0012185 -0.00025297 0
0.0014824 -0.00023895 0
0.0014933 -0.00025597 0
0.0014081 -0.00024282 0
0.0013523 -0.00024942 0
0.0013096 -0.0002419 0
0.0013544 -0.0002309 0
0.0013888 -0.00022847 0
0.0013471 -0.0002134 0
0.0013659 -0.00021061 0
0.0013504 -0.00020093 0
0.0013361 -0.00019566 0
0.0013589 -0.00018727 0
0.0013592 -0.00018114 0
0.0013124 -0.00017057 0
0.0013495 -0.00016571 0
0.0014178 -0.00015342 0
0.0013625 -0.00015194 0
0.0012992 -0.00014075 0
0.0013787 -0.00014183 0
0.0014348 -0.00013471 0
0.0013561 -0.00013437 0
0.0013409 -0.00012784 0
0.0014024 -0.00012524 0
0.0014101 -0.00011196 0
0.0013757 -0.00010971 0
0.0014387 -8.8107e-05 0
0.0014343 -8.6914e-05 0
0.0014169 -6.0715e-05 0
0.0014446 -6.0866e-05 0
0.0015256 -3.5177e-05 0
0.0014844 -3.722e-05 0
0.0015209 -1.7902e-05 0
0.0015083 -1.9733e-05 0
0.0015073 -8.3512e-06 0
0.0016055 -9.0967e-06 0
0.0014854 -2.564e-06 0
0.0013648 -3.6513e-06 0
0.0019112 -8.4414e-07 0
0.001702 -1.2142e-06 0
0.0017253 -8.1706e-07 0
0.0020392 -3.9791e-07 0
0.00099194 3.1097e-07 0
0.0013391 -1.5711e-07 0
0.00046344 1.2691e-09 0
0.00068757 3.2673e-08 0
0.00015186 -4.848e-07 0
0.00024753 -2.0295e-08 0
4.8739e-05 1.5712e-07 0
8.343e-05 -3.3223e-08 0
1.0296e-05 -4.4792e-07 0
1.5864e-05 -5.1774e-10 0
2.1862e-06 2.8075e-09 0
7.1579e-06 -8.3855e-08 0
1.1757e-06 2.7069e-07 0
-8.3364e-07 9.6954e-08 0
-5.2659e-07 -8.2492e-07 0
1.0269e-06 -6.9264e-08 0
0.0012413 -0.00022466 0
0.0014674 -0.00020935 0
0.0013411 -0.00022263 0
0.0012307 -0.00022496 0
0.0014899 -0.00021283 0
0.0015115 -0.0002257 0
0.0014177 -0.0002164 0
0.0013643 -0.00021958 0
0.0013099 -0.00021136 0
0.0013571 -0.00020682 0
0.0013843 -0.00019762 0
0.0013501 -0.00019151 0
0.0013688 -0.00018205 0
0.0013599 -0.00017544 0
0.0013476 -0.00016772 0
0.0013727 -0.00016017 0
0.0013738 -0.00015565 0
0.0013258 -0.00014728 0
0.0013622 -0.00014639 0
0.0014282 -0.00013919 0
0.0013703 -0.00013939 0
0.0013072 -0.00013476 0
0.0013836 -0.00013258 0
0.0014442 -0.00012649 0
0.0013646 -0.00012228 0
0.0013563 -0.00010944 0
0.0014192 -0.00010554 0
0.0014327 -8.5971e-05 0
0.0013992 -8.2932e-05 0
0.0014647 -5.9824e-05 0
0.0014604 -5.8324e-05 0
0.0014405 -3.5643e-05 0
0.0014686 -3.6326e-05 0
0.0015431 -1.8836e-05 0
0.0015013 -1.9911e-05 0
0.0015316 -9.0646e-06 0
0.0015181 -9.5781e-06 0
0.0015128 -3.255e-06 0
0.0016113 -4.0267e-06 0
0.0014877 -1.1533e-06 0
0.0013669 -1.5094e-06 0
0.001912 -6.2383e-07 0
0.0017024 -5.0281e-07 0
0.0017256 1.6873e-07 0
0.0020401 -8.953e-08 0
0.00099202 -1.2005e-07 0
0.0013389 -6.5064e-08 0
0.00046344 -1.1628e-07 0
0.00068726 -4.6729e-08 0
0.00015181 4.4488e-07 0
0.00024824 8.9168e-08 0
4.8725e-05 -1.6479e-07 0
8.2751e-05 -1.7613e-08 0
1.0322e-05 -3.3305e-07 0
1.5522e-05 -3.5216e-08 0
2.1952e-06 2.0129e-07 0
7.8454e-06 1.848e-08 0
1.1297e-06 -1.5025e-08 0
-1.4792e-06 -3.1069e-08 0
-3.9313e-07 -3.665e-07 0
1.0535e-06 3.2509e-08 0
0.001249 -0.00020164 0
0.0014706 -0.0001936 0
0.0013487 -0.0001957 0
0.0012409 -0.00020781 0
0.001496 -0.00019755 0
0.0015129 -0.0002076 0
0.0014179 -0.0001954 0
0.0013589 -0.00019295 0
0.0013082 -0.00018168 0
0.0013571 -0.00017408 0
0.0013886 -0.00016538 0
0.0013578 -0.00015941 0
0.001378 -0.00015362 0
0.0013702 -0.0001491 0
0.001357 -0.00014614 0
0.001382 -0.00014181 0
0.0013807 -0.00014057 0
0.0013334 -0.00013747 0
0.0013665 -0.00013503 0
0.0014356 -0.00013271 0
0.0013758 -0.00012743 0
0.0013176 -0.00012158 0
0.0013948 -0.00011514 0
0.0014606 -0.00010281 0
0.001383 -9.7069e-05 0
0.0013787 -7.9706e-05 0
0.0014422 -7.4987e-05 0
0.0014572 -5.5252e-05 0
0.0014235 -5.2473e-05 0
0.0014867 -3.3337e-05 0
0.0014821 -3.296e-05 0
0.001457 -1.8207e-05 0
0.0014839 -1.8457e-05 0
0.0015535 -9.1731e-06 0
0.0015104 -9.1892e-06 0
0.0015371 -3.479e-06 0
0.0015237 -4.0499e-06 0
0.0015153 -1.2106e-06 0
0.0016136 -1.5642e-06 0
0.0014887 -9.0055e-07 0
0.0013674 -5.7079e-07 0
0.0019124 8.2561e-08 0
0.0017031 -1.8928e-07 0
0.0017257 2.2929e-07 0
0.0020403 -2.204e-09 0
0.00099203 -5.045e-07 0
0.0013385 -3.4875e-08 0
0.00046346 1.8851e-07 0
0.00068754 -4.1004e-08 0
0.00015183 3.0571e-07 0
0.00024848 6.4239e-08 0
4.865e-05 -3.0285e-07 0
8.2513e-05 -2.1464e-08 0
1.0297e-05 3.2479e-07 0
1.5564e-05 -9.7826e-10 0
2.2114e-06 3.8346e-08 0
8.0009e-06 5.939e-08 0
1.1122e-06 -1.4451e-07 0
-1.6522e-06 -9.526e-08 0
-5.1009e-07 5.9064e-07 0
1.3143e-06 8.2556e-08 0
0.0012508 -0.00018683 0
0.0014751 -0.00017255 0
0.0013505 -0.00018541 0
0.0012387 -0.00018636 0
0.0014978 -0.00017229 0
0.0015082 -0.00016981 0
0.0014166 -0.00016082 0
0.0013595 -0.00015303 0
0.0013072 -0.00014766 0
0.0013626 -0.00014435 0
0.0013899 -0.0001404 0
0.0013646 -0.00013996 0
0.0013803 -0.00013658 0
0.0013767 -0.00013681 0
0.0013594 -0.00013258 0
0.0013885 -0.00013337 0
0.0013845 -0.00012652 0
0.0013415 -0.00012577 0
0.0013747 -0.00011679 0
0.0014477 -0.00011119 0
0.0013901 -0.00010224 0
0.0013352 -9.143e-05 0
0.0014142 -8.355e-05 0
0.0014824 -6.9583e-05 0
0.0014049 -6.3138e-05 0
0.0014011 -4.7623e-05 0
0.001464 -4.3765e-05 0
0.0014767 -2.8846e-05 0
0.0014422 -2.7583e-05 0
0.0015013 -1.614e-05 0
0.001495 -1.5695e-05 0
0.0014663 -8.268e-06 0
0.0014918 -8.0248e-06 0
0.0015586 -3.2348e-06 0
0.0015154 -3.6655e-06 0
0.0015396 -1.1794e-06 0
0.0015258 -1.4932e-06 0
0.0015163 -8.0203e-07 0
0.0016139 -5.4617e-07 0
0.0014891 -1.0909e-07 0
0.0013681 -1.667e-07 0
0.0019125 1.3409e-07 0
0.0017034 -5.6864e-08 0
0.0017257 -2.2726e-07 0
0.0020398 -2.865e-08 0
0.00099202 2.2214e-08 0
0.0013388 1.9055e-08 0
0.00046349 1.3588e-07 0
0.00068765 -1.1353e-08 0
0.00015186 -2.1554e-07 0
0.00024798 -2.6761e-08 0
4.8655e-05 -1.0183e-08 0
8.2961e-05 2.3669e-08 0
1.0312e-05 1.9425e-07 0
1.567e-05 -4.2752e-09 0
2.2272e-06 -3.0492e-07 0
7.5486e-06 -7.4503e-09 0
1.1326e-06 -1.8115e-07 0
-1.3131e-06 -2.2606e-08 0
-6.2383e-07 3.5652e-07 0
1.3246e-06 -2.4577e-09 0
0.0012545 -0.00016092 0
0.0014758 -0.00015444 0
0.0013544 -0.00015854 0
0.0012374 -0.00014961 0
0.0014927 -0.00014692 0
0.0015069 -0.00013982 0
0.001409 -0.00013624 0
0.0013606 -0.00013572 0
0.0013042 -0.00012976 0
0.0013656 -0.00013311 0
0.0013911 -0.00012506 0
0.0013689 -0.00012953 0
0.0013844 -0.00011908 0
0.0013827 -0.0001228 0
0.001367 -0.00011034 0
0.0013977 -0.00011055 0
0.0013967 -9.8047e-05 0
0.0013553 -9.351e-05 0
0.0013909 -8.2515e-05 0
0.0014659 -7.46e-05 0
0.0014086 -6.5332e-05 0
0.0013555 -5.5462e-05 0
0.0014333 -4.8399e-05 0
0.0015018 -3.7312e-05 0
0.0014228 -3.3253e-05 0
0.0014173 -2.2812e-05 0
0.0014785 -2.0982e-05 0
0.0014887 -1.3279e-05 0
0.001452 -1.2085e-05 0
0.001509 -6.981e-06 0
0.0015014 -6.3337e-06 0
0.0014707 -2.7686e-06 0
0.001496 -3.0025e-06 0
0.0015608 -1.1011e-06 0
0.0015172 -1.2827e-06 0
0.0015405 -7.4076e-07 0
0.0015263 -5.063e-07 0
0.0015167 1.5323e-08 0
0.0016146 -1.6913e-07 0
0.0014892 2.3614e-07 0
0.0013683 -2.5994e-08 0
0.0019125 -3.2388e-07 0
0.0017029 -2.4353e-08 0
0.0017257 -2.0532e-08 0
0.0020399 -1.6301e-08 0
0.00099205 3.0731e-07 0
0.0013392 4.3494e-08 0
0.00046346 -2.6138e-07 0
0.00068733 -1.4221e-08 0
0.00015185 -5.6926e-08 0
0.00024784 -4.2754e-08 0
4.8698e-05 2.829e-07 0
8.3361e-05 5.1135e-08 0
1.0284e-05 -2.0014e-07 0
1.55e-05 -1.9813e-08 0
2.1959e-06 -3.5922e-09 0
7.252e-06 -3.3438e-08 0
1.1474e-06 1.4392e-07 0
-9.7874e-07 7.7373e-08 0
-6.0759e-07 -2.0679e-07 0
1.1115e-06 -5.4664e-08 0
0.0012483 -0.00014343 0
0.0014716 -0.00012855 0
0.0013534 -0.00014981 0
0.00123 -0.00013315 0
0.0014859 -0.0001167 0
0.0015035 -0.00012455 0
0.0014079 -0.00010738 0
0.0013619 -0.0001175 0
0.0013079 -9.9941e-05 0
0.0013703 -0.00010976 0
0.0013981 -9.2047e-05 0
0.0013768 -9.8961e-05 0
0.0013947 -8.233e-05 0
0.0013944 -8.4958e-05 0
0.0013802 -7.0627e-05 0
0.0014129 -6.9767e-05 0
0.0014115 -5.7823e-05 0
0.0013724 -5.4664e-05 0
0.0014063 -4.5042e-05 0
0.0014828 -3.9745e-05 0
0.0014236 -3.3106e-05 0
0.0013706 -2.6243e-05 0
0.0014465 -2.2682e-05 0
0.0015141 -1.6206e-05 0
0.0014329 -1.4357e-05 0
0.0014263 -9.6251e-06 0
0.0014853 -8.3675e-06 0
0.0014945 -4.9378e-06 0
0.0014567 -4.4695e-06 0
0.0015124 -1.957e-06 0
0.0015044 -2.1685e-06 0
0.0014725 -1.0319e-06 0
0.001497 -9.5655e-07 0
0.0015616 -7.883e-07 0
0.0015174 -3.9294e-07 0
0.0015409 -9.1718e-08 0
0.0015269 -1.4749e-07 0
0.0015169 1.7167e-07 0
0.0016149 -5.2965e-08 0
0.0014893 -1.8622e-07 0
0.001368 -2.8268e-08 0
0.0019125 -3.3103e-08 0
0.0017031 -4.7243e-09 0
0.0017258 2.6899e-07 0
0.0020402 1.0383e-08 0
0.00099205 -6.883e-08 0
0.0013388 5.7348e-09 0
0.00046343 -1.9317e-07 0
0.0006873 6.4474e-09 0
0.00015186 1.6884e-07 0
0.00024816 -4.6488e-09 0
4.8715e-05 2.5624e-08 0
8.312e-05 -3.2458e-09 0
1.0259e-05 -2.1741e-07 0
1.5483e-05 -4.0931e-09 0
2.1899e-06 2.4393e-07 0
7.5048e-06 -8.4675e-09 0
1.1529e-06 1.5953e-07 0
-1.1003e-06 4.203e-08 0
-5.2832e-07 -3.3991e-07 0
1.0346e-06 -1.6674e-08 0
0.0012423 -9.7586e-05 0
0.0014635 -7.3686e-05 0
0.0013511 -0.00010985 0
0.0012285 -8.7388e-05 0
0.0014838 -6.5951e-05 0
0.0015072 -8.0481e-05 0
0.0014108 -6.0477e-05 0
0.0013688 -7.3449e-05 0
0.001314 -5.5477e-05 0
0.0013798 -6.4489e-05 0
0.0014063 -4.9405e-05 0
0.0013885 -5.4565e-05 0
0.0014041 -4.2291e-05 0
0.0014072 -4.4618e-05 0
0.0013902 -3.4723e-05 0
0.0014257 -3.447e-05 0
0.0014218 -2.7122e-05 0
0.0013844 -2.4523e-05 0
0.0014162 -1.9887e-05 0
0.0014933 -1.6352e-05 0
0.0014319 -1.3576e-05 0
0.0013791 -1.072e-05 0
0.0014527 -8.6372e-06 0
0.0015202 -6.5897e-06 0
0.0014373 -5.1358e-06 0
0.0014303 -3.1865e-06 0
0.0014886 -2.834e-06 0
0.0014969 -1.1869e-06 0
0.0014586 -1.4296e-06 0
0.0015137 -7.1137e-07 0
0.001505 -6.5407e-07 0
0.001473 -4.374e-07 0
0.0014973 -2.6792e-07 0
0.0015618 1.3125e-07 0
0.0015179 -8.5253e-08 0
0.001541 9.695e-08 0
0.0015269 -1.7239e-08 0
0.0015169 -3.4924e-07 0
0.0016145 -1.9703e-08 0
0.0014893 -1.1168e-07 0
0.0013682 -1.5158e-08 0
0.0019126 2.4276e-07 0
0.0017035 8.7511e-09 0
0.0017257 -7.3908e-08 0
0.00204 -1.4752e-08 0
0.00099203 -1.0221e-07 0
0.0013387 -2.2859e-08 0
0.00046346 2.2511e-07 0
0.00068765 3.5059e-08 0
0.00015185 -4.5963e-08 0
0.00024809 1.001e-08 0
4.8691e-05 -1.9771e-07 0
8.2719e-05 -4.0597e-08 0
1.0298e-05 1.0462e-07 0
1.5745e-05 2.8739e-08 0
2.2091e-06 2.6298e-08 0
7.7441e-06 8.7693e-09 0
1.1336e-06 -7.8494e-08 0
-1.451e-06 -5.0289e-08 0
-4.9717e-07 2.8446e-08 0
1.1902e-06 3.6888e-08 0
0.001238 -4.4438e-05 0
0.0014577 -3.2257e-05 0
0.0013413 -5.1018e-05 0
0.0012295 -4.1177e-05 0
0.0014827 -2.8864e-05 0
0.0015113 -3.8045e-05 0
0.0014131 -2.6875e-05 0
0.0013748 -3.411e-05 0
0.0013181 -2.4422e-05 0
0.0013869 -2.9729e-05 0
0.0014114 -2.1302e-05 0
0.001396 -2.4584e-05 0
0.0014098 -1.7682e-05 0
0.0014147 -1.8723e-05 0
0.0013961 -1.3802e-05 0
0.0014329 -1.3274e-05 0
0.001427 -1.0091e-05 0
0.0013908 -9.1715e-06 0
0.0014202 -6.9645e-06 0
0.0014985 -6.0961e-06 0
0.001435 -4.5602e-06 0
0.0013827 -3.4069e-06 0
0.0014553 -2.7963e-06 0
0.0015226 -1.4685e-06 0
0.0014393 -1.5663e-06 0
0.0014317 -8.5937e-07 0
0.0014895 -7.9874e-07 0
0.0014977 -8.7768e-07 0
0.0014588 -3.8848e-07 0
0.0015141 -4.255e-07 0
0.0015053 -1.871e-07 0
0.0014733 2.0939e-07 0
0.0014979 -8.0313e-08 0
0.0015619 1.6558e-07 0
0.001518 -2.6822e-08 0
0.001541 -1.4869e-07 0
0.0015266 -6.3749e-09 0
0.0015168 3.8369e-08 0
0.0016146 1.2133e-08 0
0.0014893 2.0182e-07 0
0.0013683 2.1961e-08 0
0.0019126 -1.5283e-07 0
0.0017031 1.8399e-09 0
0.0017257 -2.498e-07 0
0.0020399 -1.6962e-08 0
0.00099206 1.4895e-07 0
0.0013391 -9.9154e-09 0
0.00046347 1.5375e-07 0
0.00068765 1.6477e-09 0
0.00015181 -1.6707e-07 0
0.00024787 -2.3293e-09 0
4.8672e-05 2.3703e-08 0
8.2823e-05 -4.3222e-09 0
1.0332e-05 1.9625e-07 0
1.5768e-05 2.5269e-08 0
2.2066e-06 -2.0499e-07 0
7.6269e-06 7.1115e-09 0
1.1195e-06 -1.0682e-07 0
-1.4398e-06 -4.8483e-08 0
-5.3937e-07 2.9497e-07 0
1.2958e-06 2.6925e-08 0
0.0012357 -1.7823e-05 0
0.0014549 -1.1296e-05 0
0.0013344 -2.1127e-05 0
0.00123 -1.6221e-05 0
0.0014825 -1.0193e-05 0
0.0015134 -1.486e-05 0
0.0014139 -9.425e-06 0
0.0013778 -1.2951e-05 0
0.0013195 -8.4091e-06 0
0.0013906 -1.0342e-05 0
0.0014135 -7.075e-06 0
0.0014001 -7.8069e-06 0
0.0014121 -5.605e-06 0
0.0014187 -6.0061e-06 0
0.0013982 -4.2506e-06 0
0.0014362 -4.6494e-06 0
0.001429 -3.1009e-06 0
0.0013933 -3.1471e-06 0
0.001422 -2.1312e-06 0
0.0015002 -1.6236e-06 0
0.0014364 -1.3424e-06 0
0.0013839 -7.5062e-07 0
0.001456 -7.7101e-07 0
0.0015235 -5.9088e-07 0
0.0014394 -4.1341e-07 0
0.0014322 -4.1577e-07 0
0.0014896 -2.0471e-07 0
0.0014979 4.4199e-08 0
0.0014593 -8.1794e-08 0
0.0015142 1.8256e-07 0
0.0015056 -2.3903e-08 0
0.0014733 -2.0437e-07 0
0.0014976 -1.9287e-08 0
0.0015619 -3.5168e-07 0
0.0015177 -2.9006e-08 0
0.001541 8.0701e-08 0
0.001527 -1.446e-08 0
0.0015169 3.052e-07 0
0.001615 7.3046e-09 0
0.0014893 -8.1723e-09 0
0.0013681 3.0269e-09 0
0.0019125 -1.0327e-07 0
0.0017029 3.8227e-09 0
0.0017258 1.0823e-07 0
0.0020401 2.5613e-08 0
0.00099208 -3.2077e-08 0
0.001339 4.8531e-09 0
0.00046346 -2.0466e-07 0
0.00068739 -3.4539e-08 0
0.00015183 5.5828e-08 0
0.00024811 -3.1732e-09 0
4.8681e-05 1.673e-07 0
8.3118e-05 1.8918e-08 0
1.0299e-05 -2.994e-08 0
1.5471e-05 -1.6291e-08 0
2.2009e-06 -7.6507e-08 0
7.4775e-06 9.0786e-09 0
1.1362e-06 1.5943e-08 0
-1.1513e-06 2.4709e-08 0
-5.8539e-07 5.253e-08 0
1.1873e-06 -2.6561e-08 0
0.0012349 -4.8031e-06 0
0.0014536 -3.0032e-06 0
0.001331 -5.5899e-06 0
0.0012305 -4.6421e-06 0
0.0014824 -2.7449e-06 0
0.0015145 -4.2444e-06 0
0.0014145 -2.6136e-06 0
0.0013793 -3.7249e-06 0
0.0013205 -2.3559e-06 0
0.0013921 -3.3286e-06 0
0.0014143 -2.0354e-06 0
0.0014014 -2.7629e-06 0
0.0014128 -1.678e-06 0
0.0014199 -1.7632e-06 0
0.0013989 -1.2657e-06 0
0.0014373 -6.9529e-07 0
0.0014296 -8.4472e-07 0
0.0013941 -2.1674e-07 0
0.0014224 -5.0142e-07 0
0.0015008 -4.383e-07 0
0.0014367 -2.8049e-07 0
0.0013843 -6.8418e-07 0
0.0014561 -1.6378e-07 0
0.0015236 -3.7296e-07 0
0.0014396 -1.03e-07 0
0.0014323 1.4709e-07 0
0.0014898 -6.203e-08 0
0.001498 2.0449e-07 0
0.0014592 -2.886e-08 0
0.0015142 -9.0183e-08 0
0.0015053 -3.5437e-09 0
0.0014733 -1.1648e-07 0
0.0014977 1.1523e-08 0
0.0015619 1.1156e-07 0
0.001518 1.3399e-08 0
0.001541 3.8454e-08 0
0.0015269 -2.1711e-09 0
0.0015169 -2.4205e-07 0
0.0016146 -2.3329e-08 0
0.0014893 -1.0833e-07 0
0.0013682 -1.96e-08 0
0.0019125 2.6317e-07 0
0.0017034 6.55e-09 0
0.0017257 1.7296e-07 0
0.00204 1.6105e-08 0
0.00099202 -1.6749e-07 0
0.0013386 4.5071e-09 0
0.00046346 -9.4149e-08 0
0.00068738 1.9647e-09 0
0.00015189 1.0671e-07 0
0.00024827 9.1499e-09 0
4.8692e-05 -6.6766e-08 0
8.3093e-05 -8.7288e-09 0
1.0264e-05 -1.0512e-07 0
1.5452e-05 -3.3833e-08 0
2.2075e-06 1.9898e-07 0
7.5414e-06 1.1913e-08 0
1.1484e-06 5.9045e-08 0
-1.1235e-06 4.9419e-08 0
-5.7532e-07 -2.5032e-07 0
1.0667e-06 -3.5618e-08 0
0.0012346 -1.3582e-06 0
0.0014535 -8.4035e-07 0
0.0013296 -1.7112e-06 0
0.0012305 -1.2029e-06 0
0.0014824 -7.7872e-07 0
0.0015147 -1.1149e-06 0
0.0014144 -7.3165e-07 0
0.0013796 -9.4626e-07 0
0.0013204 -6.4919e-07 0
0.0013925 -6.0062e-07 0
0.0014145 -5.0939e-07 0
0.0014019 -3.4107e-07 0
0.0014131 -3.4487e-07 0
0.0014203 -4.2264e-07 0
0.0013991 -2.2133e-07 0
0.0014376 -6.689e-07 0
0.0014296 -1.5714e-07 0
0.0013943 -6.2014e-07 0
0.0014224 -1.2352e-07 0
0.001501 -1.0343e-07 0
0.0014368 -8.6662e-08 0
0.0013844 4.1671e-07 0
0.0014565 -3.6725e-08 0
0.0015237 3.4175e-07 0
0.0014399 3.3444e-09 0
0.0014323 -1.8699e-07 0
0.0014897 7.5708e-09 0
0.0014979 -4.0965e-07 0
0.0014589 -1.3049e-08 0
0.0015142 -4.3475e-08 0
0.0015053 -2.0301e-08 0
0.0014733 3.1604e-07 0
0.0014979 -2.4095e-10 0
0.001562 1.5335e-07 0
0.001518 1.7424e-08 0
0.001541 -1.6812e-07 0
0.0015267 1.039e-08 0
0.0015169 -1.1384e-07 0
0.0016146 -2.2023e-12 0
0.0014893 6.5595e-08 0
0.0013683 -1.4164e-09 0
0.0019126 -4.4606e-08 0
0.0017033 -1.4957e-08 0
0.0017257 -1.1843e-07 0
0.00204 -2.5297e-08 0
0.00099201 1.2412e-07 0
0.0013389 4.014e-09 0
0.00046345 2.0247e-07 0
0.00068751 3.062e-08 0
0.00015186 -7.6538e-08 0
0.00024793 7.2841e-09 0
4.8697e-05 -1.9334e-07 0
8.2908e-05 -1.062e-08 0
1.0295e-05 5.902e-09 0
1.5743e-05 -1.1416e-09 0
2.2114e-06 1.4298e-07 0
7.6518e-06 -1.0165e-08 0
1.1331e-06 9.8395e-09 0
-1.3227e-06 -5.3885e-09 0
-5.3559e-07 -1.2248e-07 0
1.0971e-06 1.3873e-08 0
0.0012346 -3.486e-07 0
0.0014532 -9.6211e-08 0
0.0013294 -3.1171e-07 0
0.0012306 -4.3097e-07 0
0.0014824 -9.4701e-08 0
0.0015147 -3.9426e-07 0
0.0014146 -8.7013e-08 0
0.0013797 -3.0755e-07 0
0.0013205 -7.2383e-08 0
0.0013927 -2.8917e-07 0
0.0014144 -7.6006e-08 0
0.001402 -2.5185e-07 0
0.001413 -9.3871e-08 0
0.0014204 -6.7604e-08 0
0.0013992 -9.5258e-08 0
0.0014377 1.8832e-07 0
0.0014299 -7.0107e-08 0
0.0013944 2.8043e-07 0
0.0014227 -3.3848e-08 0
0.001501 7.6868e-08 0
0.0014367 -9.288e-09 0
0.0013844 -2.2289e-07 0
0.0014561 -6.9607e-09 0
0.0015237 -2.4941e-07 0
0.0014396 -9.3535e-09 0
0.0014324 4.3377e-08 0
0.0014899 5.1414e-09 0
0.001498 2.6176e-07 0
0.0014595 2.2434e-08 0
0.0015142 1.0502e-07 0
0.0015055 1.2126e-08 0
0.0014733 -1.9432e-07 0
0.0014974 -1.7322e-08 0
0.001562 -1.826e-07 0
0.0015177 -2.2532e-08 0
0.001541 1.3432e-07 0
0.001527 7.7997e-09 0
0.0015169 2.5389e-07 0
0.001615 2.8597e-08 0
0.0014893 -2.6436e-08 0
0.0013681 9.1729e-09 0
0.0019125 -2.4838e-07 0
0.0017029 -1.6052e-08 0
0.0017258 -8.2023e-08 0
0.00204 -1.2255e-08 0
0.00099208 1.249e-07 0
0.0013391 -1.6436e-09 0
0.00046344 5.2798e-08 0
0.00068755 -8.0042e-09 0
0.0001518 -2.3852e-08 0
0.00024785 -5.9434e-09 0
4.8691e-05 7.6436e-08 0
8.2877e-05 2.5208e-08 0
1.0327e-05 1.3754e-08 0
1.5716e-05 3.1463e-08 0
2.2101e-06 -1.7953e-07 0
7.6196e-06 -3.0195e-08 0
1.1245e-06 -1.913e-08 0
-1.3259e-06 -4.7449e-08 0
-5.336e-07 2.068e-07 0
1.1973e-06 4.0906e-08 0
0.0012345 6.2036e-08 0
0.0014534 -5.8642e-08 0
0.0013292 -2.597e-08 0
0.0012306 1.5567e-07 0
0.0014825 -5.4058e-08 0
0.0015149 1.1854e-07 0
0.0014146 -6.0774e-08 0
0.0013798 -1.42e-08 0
0.0013207 -6.1269e-08 0
0.0013927 -9.4899e-08 0
0.0014147 -4.3877e-08 0
0.001402 -9.0509e-08 0
0.0014132 -1.3411e-08 0
0.0014204 -6.9866e-08 0
0.0013991 8.5279e-09 0
0.0014377 -8.4041e-08 0
0.0014296 1.1588e-08 0
0.0013944 -1.3124e-07 0
0.0014225 1.4635e-09 0
0.001501 -1.5031e-07 0
0.0014368 -8.728e-09 0
0.0013844 -6.3733e-08 0
0.0014564 -1.0162e-08 0
0.0015237 9.6897e-08 0
0.0014398 -8.7441e-09 0
0.0014324 1.6863e-07 0
0.0014898 -1.0194e-08 0
0.001498 5.0247e-08 0
0.0014591 -4.0172e-09 0
0.0015142 -1.1557e-07 0
0.0015055 1.1889e-08 0
0.0014732 -9.2682e-08 0
0.0014978 1.583e-08 0
0.0015619 7.393e-08 0
0.0015179 -9.7238e-10 0
0.001541 8.7594e-08 0
0.0015267 -1.6032e-08 0
0.0015169 -6.6937e-08 0
0.0016146 -1.0876e-08 0
0.0014893 -5.6557e-08 0
0.0013682 7.9111e-09 0
0.0019125 1.2977e-07 0
0.0017033 2.196e-08 0
0.0017258 8.9957e-08 0
0.00204 1.3501e-08 0
0.00099208 -1.7664e-07 0
0.0013388 -1.4379e-08 0
0.00046347 -1.8472e-07 0
0.00068752 -2.6678e-08 0
0.00015183 1.1833e-07 0
0.00024824 -5.0635e-09 0
4.8671e-05 2.3282e-07 0
8.2999e-05 1.7301e-08 0
1.029e-05 -1.8082e-08 0
1.5432e-05 1.3488e-08 0
2.205e-06 -2.1311e-07 0
7.4873e-06 -1.6736e-09 0
1.1426e-06 -1.8933e-08 0
-1.2052e-06 -8.5829e-09 0
-5.6225e-07 1.8405e-07 0
1.273e-06 -1.3367e-09 0
0.0012345 -8.9254e-08 0
0.0014533 1.8831e-08 0
0.0013294 -7.9782e-09 0
0.0012306 -2.0306e-07 0
0.0014824 1.8782e-08 0
0.0015148 -1.3334e-07 0
0.0014144 2.9696e-08 0
0.0013797 9.4275e-08 0
0.0013204 3.1182e-08 0
0.0013927 2.5534e-07 0
0.0014144 2.2435e-08 0
0.0014021 2.0574e-07 0
0.0014131 6.0802e-09 0
0.0014204 -1.3114e-09 0
0.0013992 -6.7613e-09 0
0.0014376 -1.8351e-07 0
0.0014298 -1.0631e-08 0
0.0013944 -1.5305e-07 0
0.0014226 -7.9548e-09 0
0.001501 8.0729e-08 0
0.0014367 -3.3623e-09 0
0.0013845 2.2847e-07 0
0.0014563 9.6992e-10 0
0.0015237 5.3392e-08 0
0.0014398 3.6077e-09 0
0.0014323 -2.3641e-07 0
0.0014898 -2.0969e-09 0
0.0014979 -2.2044e-07 0
0.001459 -1.5789e-08 0
0.0015142 9.8534e-08 0
0.0015054 -1.5048e-08 0
0.0014734 2.5567e-07 0
0.0014979 9.8917e-09 0
0.0015619 3.0772e-08 0
0.0015181 2.186e-08 0
0.0015409 -2.0897e-07 0
0.0015267 -4.2806e-09 0
0.0015168 -1.0977e-07 0
0.0016145 -2.539e-08 0
0.0014893 1.2616e-07 0
0.0013682 -4.5658e-09 0
0.0019126 1.387e-07 0
0.0017034 1.978e-08 0
0.0017257 -1.6432e-08 0
0.00204 1.0645e-08 0
0.00099201 -7.142e-08 0
0.0013387 -2.5385e-09 0
0.00046349 -1.8142e-08 0
0.00068743 5.2814e-09 0
0.00015189 -1.9757e-08 0
0.00024821 2.3053e-09 0
4.868e-05 -4.939e-08 0
8.3094e-05 -2.7847e-08 0
1.0257e-05 4.229e-08 0
1.5529e-05 -2.532e-08 0
2.1873e-06 1.3436e-07 0
7.44e-06 3.8204e-08 0
1.1519e-06 -1.6273e-08 0
-1.2862e-06 4.647e-08 0
-5.5211e-07 -1.6982e-07 0
1.2725e-06 -4.6323e-08 0
0.0012345 3.3596e-08 0
0.0014532 -2.0679e-08 0
0.0013292 -6.8277e-08 0
0.0012306 1.9512e-07 0
0.0014824 -1.817e-08 0
0.0015148 1.0465e-07 0
0.0014147 -2.6164e-08 0
0.0013798 -2.0403e-07 0
0.0013207 -1.7019e-08 0
0.0013926 -4.064e-07 0
0.0014146 -4.9259e-09 0
0.001402 -2.7698e-07 0
0.0014131 6.3579e-09 0
0.0014204 9.3773e-08 0
0.0013991 1.3478e-08 0
0.0014377 3.9892e-07 0
0.0014298 1.5584e-08 0
0.0013944 3.4971e-07 0
0.0014227 1.4285e-08 0
0.001501 -3.0709e-08 0
0.0014368 9.1918e-09 0
0.0013844 -3.3325e-07 0
0.0014561 -1.6838e-09 0
0.0015237 -2.1836e-07 0
0.0014395 -1.0175e-08 0
0.0014324 1.1047e-07 0
0.0014899 -2.2681e-09 0
0.001498 2.0232e-07 0
0.0014594 1.0615e-08 0
0.0015142 6.6195e-09 0
0.0015054 -1.2753e-09 0
0.0014733 -1.4839e-07 0
0.0014974 -2.5503e-08 0
0.001562 -8.5699e-08 0
0.0015178 -1.4455e-08 0
0.001541 6.1568e-08 0
0.0015271 2.2484e-08 0
0.0015168 1.0253e-07 0
0.0016149 2.2113e-08 0
0.0014893 -8.2788e-09 0
0.001368 -1.668e-08 0
0.0019126 -1.1743e-07 0
0.0017029 -2.7671e-08 0
0.0017258 -3.1512e-08 0
0.0020401 3.7446e-09 0
0.00099204 1.599e-07 0
0.0013391 2.7043e-08 0
0.00046344 1.3649e-07 0
0.00068744 1.9067e-08 0
0.00015185 -1.3407e-07 0
0.00024782 -5.4861e-09 0
4.8714e-05 -2.4556e-07 0
8.2991e-05 -2.8965e-08 0
1.0296e-05 3.7722e-08 0
1.5818e-05 -1.905e-08 0
2.1814e-06 2.7804e-07 0
7.5939e-06 2.2261e-08 0
1.1313e-06 1.8048e-08 0
-1.3743e-06 2.231e-08 0
-5.156e-07 -2.5722e-07 0
1.1252e-06 -1.6115e-08 0
0.0012345 4.4926e-08 0
0.0014533 2.8524e-08 0
0.0013293 1.7026e-07 0
0.0012306 -1.7088e-07 0
0.0014824 2.1586e-08 0
0.0015148 -5.0658e-08 0
0.0014144 2.5403e-08 0
0.0013798 3.4707e-07 0
0.0013204 3.7794e-09 0
0.0013927 5.7917e-07 0
0.0014145 -9.2062e-09 0
0.001402 3.6977e-07 0
0.0014132 -9.867e-09 0
0.0014204 -1.1022e-07 0
0.0013991 -5.2216e-09 0
0.0014376 -4.5551e-07 0
0.0014296 -4.6437e-10 0
0.0013944 -3.8291e-07 0
0.0014224 2.4657e-09 0
0.0015011 4.0305e-09 0
0.0014368 6.0844e-09 0
0.0013845 2.8979e-07 0
0.0014565 1.375e-08 0
0.0015237 2.2854e-07 0
0.0014399 1.4831e-08 0
0.0014323 7.8073e-09 0
0.0014897 -1.0497e-09 0
0.001498 -1.2073e-07 0
0.0014589 -1.2571e-08 0
0.0015142 -1.4253e-07 0
0.0015054 -2.908e-10 0
0.0014733 -7.2112e-08 0
0.0014978 7.1466e-09 0
0.0015619 8.9048e-08 0
0.0015179 -9.5386e-09 0
0.0015411 1.4415e-07 0
0.0015267 -1.2181e-08 0
0.0015169 -2.7301e-08 0
0.0016148 1.1467e-08 0
0.0014892 -1.5101e-07 0
0.0013683 1.3053e-08 0
0.0019125 -2.3902e-08 0
0.0017031 -1.2739e-08 0
0.0017258 1.0323e-07 0
0.0020399 -1.4392e-08 0
0.00099209 4.2455e-08 0
0.0013389 8.5986e-09 0
0.00046344 -2.2326e-08 0
0.00068759 9.6524e-09 0
0.0001518 2.7335e-09 0
0.00024798 -5.3187e-09 0
4.8699e-05 -2.5969e-09 0
8.2839e-05 7.4475e-09 0
1.0334e-05 -4.807e-08 0
1.5634e-05 1.9687e-08 0
2.2215e-06 -5.0566e-08 0
7.7612e-06 -2.7121e-08 0
1.1183e-06 4.108e-08 0
-1.1674e-06 -4.5442e-08 0
-5.4391e-07 1.0892e-07 0
9.5258e-07 4.7872e-08 0
0.0012345 -1.2815e-07 0
0.0014532 -2.1632e-08 0
0.0013292 -2.8091e-07 0
0.0012305 1.5804e-07 0
0.0014824 -6.0719e-09 0
0.0015148 1.3169e-08 0
0.0014146 -7.3782e-10 0
0.0013797 -4.5925e-07 0
0.0013206 3.5499e-08 0
0.0013926 -6.84e-07 0
0.0014144 4.2873e-08 0
0.001402 -3.766e-07 0
0.001413 2.44e-08 0
0.0014205 1.667e-07 0
0.0013992 4.6035e-09 0
0.0014377 4.7439e-07 0
0.0014299 -4.724e-09 0
0.0013944 3.6593e-07 0
0.0014227 -4.8085e-09 0
0.001501 6.8597e-08 0
0.0014367 -2.0026e-09 0
0.0013845 -9.4595e-08 0
0.0014561 -1.2624e-09 0
0.0015237 -1.0028e-07 0
0.0014397 4.643e-09 0
0.0014323 -1.0203e-07 0
0.0014899 1.5198e-08 0
0.0014979 -5.332e-08 0
0.0014592 9.5482e-09 0
0.0015142 1.0764e-07 0
0.0015053 -4.8286e-09 0
0.0014734 1.502e-07 0
0.0014977 4.223e-09 0
0.0015619 -4.0176e-08 0
0.001518 1.3016e-08 0
0.0015409 -1.5571e-07 0
0.0015267 -1.4715e-08 0
0.0015169 -2.3495e-08 0
0.0016145 -2.6457e-08 0
0.0014894 9.8468e-08 0
0.0013683 1.6119e-08 0
0.0019125 4.8534e-08 0
0.0017035 3.2989e-08 0
0.0017257 -3.5816e-08 0
0.00204 -1.3091e-08 0
0.00099203 -7.5011e-08 0
0.0013385 -3.4899e-08 0
0.00046349 -6.2483e-08 0
0.00068747 -6.306e-09 0
0.00015185 7.9458e-08 0
0.00024836 1.5893e-08 0
4.8651e-05 2.0129e-07 0
8.2966e-05 3.1423e-08 0
1.0296e-05 -2.9777e-08 0
1.533e-05 2.0028e-08 0
2.2558e-06 -3.1066e-07 0
7.6394e-06 -4.4794e-08 0
1.1373e-06 -1.0634e-08 0
-1.0395e-06 -3.9986e-08 0
-6.1649e-07 3.3917e-07 0
1.068e-06 4.5263e-08 0
0.0012345 2.1891e-07 0
0.0014534 1.5866e-07 0
0.0013293 4.0741e-07 0
0.0012306 -1.4939e-07 0
0.0014824 1.1686e-07 0
0.0015149 2.107e-08 0
0.0014145 8.7626e-08 0
0.0013798 5.5148e-07 0
0.0013206 2.2297e-08 0
0.0013927 7.2356e-07 0
0.0014147 1.3528e-08 0
0.001402 3.0155e-07 0
0.0014131 4.0968e-08 0
0.0014203 -2.4315e-07 0
0.001399 5.6062e-08 0
0.0014376 -4.1326e-07 0
0.0014295 4.6685e-08 0
0.0013944 -2.1904e-07 0
0.0014225 2.7162e-08 0
0.001501 -3.5256e-08 0
0.0014369 1.0967e-08 0
0.0013844 -3.6129e-08 0
0.0014564 2.0376e-09 0
0.0015237 -7.7709e-10 0
0.0014396 -4.3239e-09 0
0.0014324 1.6689e-07 0
0.0014897 -6.3926e-10 0
0.001498 1.909e-07 0
0.0014594 1.8737e-08 0
0.0015142 -4.5671e-09 0
0.0015055 1.983e-08 0
0.0014733 -1.198e-07 0
0.0014974 -9.1381e-09 0
0.001562 -6.7861e-08 0
0.0015177 -1.1405e-08 0
0.001541 -9.3889e-09 0
0.0015271 1.8079e-08 0
0.0015168 5.7329e-08 0
0.0016148 8.6584e-09 0
0.0014893 9.9194e-08 0
0.0013679 -2.3912e-08 0
0.0019126 -2.3061e-08 0
0.0017031 -6.3949e-09 0
0.0017257 -1.3357e-07 0
0.0020402 2.2457e-08 0
0.00099199 -3.3667e-08 0
0.0013389 -4.3341e-09 0
0.00046347 5.8242e-08 0
0.0006873 -3.0083e-08 0
0.00015189 4.0765e-08 0
0.00024802 8.5094e-09 0
4.8676e-05 5.6066e-08 0
8.3129e-05 3.352e-08 0
1.0263e-05 6.4747e-09 0
1.5634e-05 -1.465e-08 0
2.2065e-06 -8.4368e-08 0
7.392e-06 -1.6761e-08 0
1.1515e-06 -3.9907e-08 0
-1.385e-06 3.6062e-08 0
-5.9092e-07 3.4637e-08 0
1.4155e-06 -2.4548e-08 0
0.0012345 -2.3985e-08 0
0.0014533 3.5323e-07 0
0.0013293 -1.8324e-07 0
0.0012305 4.0119e-07 0
0.0014825 3.9477e-07 0
0.0015147 1.5284e-07 0
0.0014145 4.5088e-07 0
0.0013797 -4.6879e-07 0
0.0013203 5.0165e-07 0
0.0013927 -5.8252e-07 0
0.0014143 4.2117e-07 0
0.0014021 -6.5498e-08 0
0.0014131 2.825e-07 0
0.0014204 3.9124e-07 0
0.0013994 1.8092e-07 0
0.0014376 3.2139e-07 0
0.0014299 1.2945e-07 0
0.0013943 5.8421e-10 0
0.0014225 9.7422e-08 0
0.001501 -6.2047e-08 0
0.0014366 6.8538e-08 0
0.0013845 1.2057e-07 0
0.0014563 4.5361e-08 0
0.0015237 1.3181e-07 0
0.0014399 2.9291e-08 0
0.0014323 -5.6688e-08 0
0.0014898 6.0853e-09 0
0.001498 -1.084e-07 0
0.0014589 -1.5369e-08 0
0.0015142 -2.1149e-08 0
0.0015054 1.0375e-09 0
0.0014733 2.1046e-08 0
0.0014979 2.738e-08 0
0.0015619 8.2244e-08 0
0.0015179 9.4043e-09 0
0.001541 1.1467e-07 0
0.0015267 -7.4895e-09 0
0.0015169 -4.7252e-08 0
0.0016148 1.053e-08 0
0.0014892 -1.5983e-07 0
0.0013682 -4.9296e-09 0
0.0019125 1.1322e-10 0
0.0017029 -3.2874e-08 0
0.0017258 1.0385e-07 0
0.0020399 8.4651e-09 0
0.00099208 -1.4061e-08 0
0.0013393 3.6315e-08 0
0.00046341 -2.6164e-08 0
0.00068763 -7.6574e-09 0
0.00015182 4.2047e-08 0
0.00024765 -1.7281e-08 0
4.8734e-05 -8.6917e-08 0
8.2892e-05 -9.2565e-09 0
1.0308e-05 -5.5001e-08 0
1.5992e-05 -2.3254e-08 0
2.139e-06 2.4169e-07 0
7.47e-06 4.1585e-08 0
1.1337e-06 2.6797e-08 0
-1.6319e-06 5.7203e-08 0
-4.7347e-07 -3.321e-07 0
1.4407e-06 -6.6734e-08 0
0.0012347 8.6954e-07 0
0.0014535 1.6924e-06 0
0.0013296 1.1596e-06 0
0.0012307 4.0382e-07 0
0.0014823 1.4713e-06 0
0.0015148 7.4427e-07 0
0.0014146 1.3355e-06 0
0.0013797 1.3629e-06 0
0.0013208 1.204e-06 0
0.0013925 1.2123e-06 0
0.0014146 1.1984e-06 0
0.0014019 3.9182e-07 0
0.0014129 1.1647e-06 0
0.0014203 -1.1742e-07 0
0.0013987 9.9151e-07 0
0.0014377 7.5207e-08 0
0.0014295 7.3326e-07 0
0.0013944 3.9579e-07 0
0.0014227 4.9163e-07 0
0.0015009 2.6632e-07 0
0.0014369 3.074e-07 0
0.0013844 -8.8376e-08 0
0.0014561 1.7465e-07 0
0.0015237 -1.6886e-07 0
0.0014394 8.9542e-08 0
0.0014323 -5.1723e-08 0
0.0014899 5.5204e-08 0
0.0014979 7.43e-10 0
0.0014593 3.6049e-08 0
0.0015142 8.0868e-08 0
0.0015053 1.3497e-09 0
0.0014734 1.5278e-07 0
0.0014976 -4.4821e-09 0
0.001562 2.7297e-08 0
0.0015181 2.0979e-08 0
0.0015409 -9.4292e-08 0
0.0015268 3.8181e-09 0
0.0015169 -4.9558e-08 0
0.0016144 -2.2479e-08 0
0.0014893 -2.2717e-08 0
0.0013683 1.2043e-08 0
0.0019125 1.5461e-08 0
0.0017034 2.6661e-08 0
0.0017257 9.8044e-08 0
0.0020398 -2.2216e-08 0
0.00099212 1.9587e-08 0
0.0013387 -1.9915e-08 0
0.00046347 -6.5113e-08 0
0.00068774 4.078e-08 0
0.00015178 -2.8037e-08 0
0.00024815 1.065e-08 0
4.8693e-05 -8.3248e-08 0
8.2769e-05 -7.1108e-08 0
1.0332e-05 2.8713e-09 0
1.5536e-05 -4.2408e-09 0
2.1824e-06 2.1668e-07 0
7.7057e-06 8.1817e-08 0
1.123e-06 3.4926e-08 0
-1.1597e-06 -1.0126e-08 0
-4.6965e-07 -2.2279e-07 0
9.9728e-07 -3.1149e-08 0
0.0012346 2.521e-06 0
0.001454 4.8213e-06 0
0.0013299 2.8691e-06 0
0.0012305 2.8521e-06 0
0.0014828 4.6337e-06 0
0.0015147 2.2456e-06 0
0.0014144 4.7632e-06 0
0.0013797 1.3931e-06 0
0.00132 4.687e-06 0
0.0013926 1.479e-06 0
0.001414 4.1896e-06 0
0.0014018 2.1027e-06 0
0.0014129 3.5737e-06 0
0.0014201 2.0296e-06 0
0.0013989 3.0236e-06 0
0.0014373 1.1082e-06 0
0.0014292 2.4805e-06 0
0.0013941 2.9429e-07 0
0.0014218 1.8872e-06 0
0.0015009 1.7408e-07 0
0.0014364 1.3076e-06 0
0.0013843 3.1047e-07 0
0.0014563 8.3004e-07 0
0.0015236 2.4282e-07 0
0.0014397 4.7755e-07 0
0.0014323 1.5504e-07 0
0.0014895 2.3618e-07 0
0.001498 1.2385e-07 0
0.0014591 1.1077e-07 0
0.0015142 -4.2328e-08 0
0.0015056 5.9117e-08 0
0.0014733 -1.4951e-07 0
0.0014975 4.0135e-09 0
0.001562 -3.8847e-08 0
0.0015177 -1.7812e-08 0
0.001541 3.2383e-08 0
0.0015271 2.326e-08 0
0.0015168 5.6268e-08 0
0.0016149 2.3079e-08 0
0.0014893 1.2186e-07 0
0.0013679 -6.7404e-09 0
0.0019126 -1.4739e-10 0
0.0017032 1.7459e-08 0
0.0017257 -1.5396e-07 0
0.0020402 1.5067e-09 0
0.000992 2.644e-08 0
0.0013386 -3.997e-08 0
0.00046352 1.3003e-07 0
0.00068719 1.7172e-08 0
0.0001519 -1.3036e-07 0
0.0002485 2.3054e-08 0
4.8634e-05 -8.7421e-08 0
8.3243e-05 -3.7539e-08 0
1.0256e-05 1.8861e-07 0
1.506e-05 2.3552e-08 0
2.2684e-06 -3.0732e-08 0
7.5576e-06 1.6e-08 0
1.1496e-06 -8.4549e-08 0
-7.2604e-07 -6.0166e-08 0
-6.0876e-07 1.3799e-07 0
8.1159e-07 4.1874e-08 0
0.0012355 6.9295e-06 0
0.0014553 1.16e-05 0
0.0013316 7.8712e-06 0
0.001231 6.4949e-06 0
0.0014829 1.0528e-05 0
0.0015146 7.2867e-06 0
0.0014148 1.0289e-05 0
0.001379 7.7992e-06 0
0.0013205 1.0569e-05 0
0.0013918 6.6893e-06 0
0.0014137 1.0899e-05 0
0.0014012 4.8352e-06 0
0.0014116 1.0537e-05 0
0.0014196 3.8235e-06 0
0.0013975 9.3434e-06 0
0.0014368 3.6273e-06 0
0.0014284 7.7061e-06 0
0.0013936 3.1302e-06 0
0.0014214 5.9929e-06 0
0.0015003 2.0399e-06 0
0.0014355 4.3683e-06 0
0.001384 1.0901e-06 0
0.001455 2.9398e-06 0
0.0015234 5.8698e-07 0
0.0014391 1.8163e-06 0
0.0014321 1.9763e-07 0
0.0014896 1.0241e-06 0
0.0014978 -3.1591e-08 0
0.0014588 4.9992e-07 0
0.0015142 1.7511e-08 0
0.0015052 2.1385e-07 0
0.0014733 3.6167e-08 0
0.0014979 1.114e-07 0
0.0015619 1.0408e-08 0
0.0015179 4.4702e-08 0
0.001541 8.6756e-08 0
0.0015267 -8.2196e-09 0
0.0015169 7.1152e-08 0
0.0016149 1.7863e-08 0
0.0014892 -3.1564e-09 0
0.0013683 2.6333e-08 0
0.0019125 -2.345e-08 0
0.0017029 -2.5775e-08 0
0.0017258 -7.6053e-08 0
0.00204 -8.8849e-09 0
0.00099198 6.6354e-09 0
0.0013391 4.1362e-08 0
0.00046344 7.5115e-08 0
0.00068723 -1.8802e-08 0
0.00015194 -7.7397e-08 0
0.00024795 -5.6226e-08 0
4.8697e-05 4.7124e-08 0
8.3335e-05 6.5054e-08 0
1.0219e-05 1.3054e-07 0
1.562e-05 5.6414e-08 0
2.2244e-06 -2.2893e-07 0
7.3282e-06 -1.1186e-07 0
1.1626e-06 -9.9106e-08 0
-1.3078e-06 -2.9939e-08 0
-6.3274e-07 2.7973e-07 0
1.3053e-06 7.8321e-08 0
0.0012362 1.5683e-05 0
0.0014571 2.0788e-05 0
0.0013331 1.7996e-05 0
0.0012313 1.5092e-05 0
0.0014847 1.9861e-05 0
0.0015153 1.4428e-05 0
0.0014154 2.0435e-05 0
0.0013798 1.4356e-05 0
0.0013205 2.1219e-05 0
0.0013916 1.5379e-05 0
0.0014139 2.1617e-05 0
0.0013999 1.5784e-05 0
0.0014116 2.1821e-05 0
0.0014177 1.3945e-05 0
0.0013961 2.1351e-05 0
0.0014349 1.069e-05 0
0.0014255 1.9548e-05 0
0.0013919 7.8152e-06 0
0.0014182 1.6463e-05 0
0.0014989 5.7266e-06 0
0.0014332 1.2753e-05 0
0.0013828 3.8303e-06 0
0.0014534 9.0928e-06 0
0.0015225 2.2208e-06 0
0.0014372 5.9351e-06 0
0.0014317 1.2644e-06 0
0.0014882 3.5395e-06 0
0.0014976 6.488e-07 0
0.0014585 1.9392e-06 0
0.001514 2.3998e-07 0
0.001505 9.4299e-07 0
0.0014733 1.7967e-07 0
0.0014973 3.9142e-07 0
0.0015619 1.0303e-07 0
0.001518 1.7023e-07 0
0.0015409 -8.5089e-08 0
0.0015268 5.3545e-08 0
0.0015169 -5.2169e-08 0
0.0016144 -1.8587e-08 0
0.0014893 1.1637e-08 0
0.0013683 1.9002e-08 0
0.0019125 -1.0917e-08 0
0.0017035 1.6373e-08 0
0.0017257 1.0451e-07 0
0.0020397 -1.6681e-08 0
0.00099208 4.2753e-08 0
0.0013388 4.1329e-08 0
0.00046343 -2.0184e-07 0
0.00068791 -8.5946e-09 0
0.00015182 4.8974e-08 0
0.00024784 -6.1408e-08 0
4.8743e-05 2.7002e-07 0
8.2567e-05 7.2931e-08 0
1.0327e-05 -1.8592e-07 0
1.6186e-05 1.4245e-08 0
2.1296e-06 -2.2838e-07 0
7.6781e-06 -9.7218e-08 0
1.1207e-06 1.0632e-07 0
-1.9864e-06 3.7343e-08 0
-4.9009e-07 1.3737e-07 0
1.6277e-06 2.1757e-08 0
0.0012394 2.3214e-05 0
0.0014599 2.1717e-05 0
0.0013351 2.3746e-05 0
0.0012338 2.371e-05 0
0.0014882 2.1343e-05 0
0.0015163 2.6469e-05 0
0.0014193 2.3061e-05 0
0.0013799 2.8768e-05 0
0.0013239 2.8043e-05 0
0.0013919 2.909e-05 0
0.0014156 3.3839e-05 0
0.0013997 2.866e-05 0
0.0014116 3.7797e-05 0
0.0014162 2.8275e-05 0
0.0013954 3.9364e-05 0
0.0014319 2.6513e-05 0
0.0014237 3.8724e-05 0
0.001388 2.2249e-05 0
0.0014143 3.5701e-05 0
0.0014951 1.6676e-05 0
0.0014276 3.0355e-05 0
0.0013796 1.1608e-05 0
0.001448 2.3581e-05 0
0.0015201 7.4785e-06 0
0.0014334 1.6674e-05 0
0.0014299 4.3071e-06 0
0.0014851 1.067e-05 0
0.0014966 2.3334e-06 0
0.001456 6.1494e-06 0
0.0015135 1.116e-06 0
0.0015039 3.2169e-06 0
0.0014729 2.8791e-07 0
0.0014968 1.5034e-06 0
0.0015618 4.1096e-08 0
0.0015172 5.8564e-07 0
0.0015409 6.3335e-08 0
0.0015269 2.2595e-07 0
0.0015168 7.2011e-09 0
0.0016148 9.8695e-08 0
0.0014893 -1.0559e-08 0
0.0013679 -7.8932e-09 0
0.0019126 3.3911e-08 0
0.0017034 -1.1568e-09 0
0.0017257 1.1821e-07 0
0.0020402 5.548e-08 0
0.00099205 -1.2568e-08 0
0.0013385 -1.3643e-08 0
0.00046352 -1.7589e-07 0
0.00068768 -4.371e-08 0
0.00015177 1.6325e-07 0
0.00024831 6.7776e-08 0
4.8654e-05 1.0266e-07 0
8.2437e-05 1.3752e-09 0
1.0396e-05 -3.3822e-07 0
1.5609e-05 -1.1331e-07 0
2.1958e-06 9.1228e-08 0
8.0456e-06 7.2162e-08 0
1.0915e-06 2.3924e-07 0
-1.3145e-06 7.2823e-08 0
-4.88e-07 -1.5335e-07 0
1.0182e-06 -8.1724e-08 0
0.0012423 1.8547e-05 0
0.0014609 1.1305e-05 0
0.0013346 1.8778e-05 0
0.0012391 1.8953e-05 0
0.0014932 1.3529e-05 0
0.0015236 2.2914e-05 0
0.0014265 1.6945e-05 0
0.0013869 3.1416e-05 0
0.0013324 2.2252e-05 0
0.0013961 4.1412e-05 0
0.0014248 3.1297e-05 0
0.0014013 4.8566e-05 0
0.0014192 4.321e-05 0
0.0014156 5.0965e-05 0
0.0013988 5.415e-05 0
0.0014291 4.9686e-05 0
0.0014229 6.0835e-05 0
0.0013829 4.5728e-05 0
0.0014104 6.219e-05 0
0.0014883 3.8818e-05 0
0.001421 5.8324e-05 0
0.0013725 2.9623e-05 0
0.0014389 4.9951e-05 0
0.001514 2.0397e-05 0
0.0014236 3.8765e-05 0
0.0014253 1.2648e-05 0
0.0014773 2.713e-05 0
0.0014935 6.8821e-06 0
0.0014504 1.7026e-05 0
0.0015117 3.4791e-06 0
0.0014999 9.5226e-06 0
0.0014721 1.6892e-06 0
0.001495 4.7815e-06 0
0.0015614 5.4686e-07 0
0.0015167 2.1386e-06 0
0.0015408 1.7214e-07 0
0.001526 8.1231e-07 0
0.0015168 1.8062e-07 0
0.0016147 3.1155e-07 0
0.0014892 -3.4479e-08 0
0.0013683 9.3467e-08 0
0.0019125 -3.9309e-08 0
0.0017027 -2.3967e-08 0
0.0017258 8.0774e-08 0
0.00204 4.8768e-08 0
0.00099203 -7.132e-08 0
0.0013393 4.2517e-09 0
0.00046346 7.1397e-08 0
0.00068716 -4.3943e-08 0
0.00015184 1.4938e-07 0
0.00024786 9.2195e-08 0
4.8628e-05 -3.1588e-07 0
8.3351e-05 -4.4554e-08 0
1.0305e-05 -7.3827e-08 0
1.5173e-05 -9.7584e-08 0
2.3174e-06 3.9307e-07 0
7.5681e-06 1.3374e-07 0
1.1334e-06 1.5625e-08 0
-3.2187e-07 1.022e-08 0
-6.5912e-07 -3.1419e-07 0
4.2928e-07 -6.7646e-08 0
0.0012459 4.6106e-06 0
0.0014637 -5.9068e-06 0
0.001336 1.8524e-06 0
0.0012455 9.8633e-06 0
0.0014996 -2.6872e-06 0
0.0015307 1.4664e-05 0
0.0014362 4.0902e-06 0
0.0013966 2.1452e-05 0
0.001344 1.4527e-05 0
0.0014088 3.2942e-05 0
0.001438 2.6584e-05 0
0.001413 4.8594e-05 0
0.0014339 3.9517e-05 0
0.0014228 6.4205e-05 0
0.0014133 5.4703e-05 0
0.0014307 7.4462e-05 0
0.0014331 7.0857e-05 0
0.0013792 7.6765e-05 0
0.0014131 8.3568e-05 0
0.0014801 7.1745e-05 0
0.0014161 8.8972e-05 0
0.0013613 6.0936e-05 0
0.0014285 8.5604e-05 0
0.0015021 4.6451e-05 0
0.0014096 7.4211e-05 0
0.001415 3.1764e-05 0
0.0014621 5.7592e-05 0
0.0014859 1.9463e-05 0
0.0014379 3.9834e-05 0
0.0015068 1.0374e-05 0
0.0014912 2.4454e-05 0
0.0014694 4.9491e-06 0
0.0014891 1.3226e-05 0
0.0015601 2.2977e-06 0
0.0015138 6.3389e-06 0
0.0015402 7.9778e-07 0
0.001525 2.7217e-06 0
0.0015166 1.1218e-07 0
0.0016137 9.6801e-07 0
0.0014892 6.7804e-08 0
0.0013682 2.9234e-07 0
0.0019124 7.4217e-08 0
0.0017031 1.3551e-07 0
0.0017258 -8.3633e-08 0
0.0020396 5.9371e-09 0
0.00099212 -2.7574e-08 0
0.0013395 -3.7261e-08 0
0.00046337 2.758e-07 0
0.00068754 7.8522e-08 0
0.00015183 -1.2786e-07 0
0.00024728 -2.7222e-09 0
4.8747e-05 -3.267e-07 0
8.351e-05 -8.6426e-08 0
1.0251e-05 4.2448e-07 0
1.5867e-05 1.1106e-07 0
2.2417e-06 9.4291e-08 0
7.0395e-06 -8.2911e-10 0
1.1698e-06 -3.3117e-07 0
-1.0108e-06 -1.1629e-07 0
-6.3577e-07 6.3346e-08 0
1.0924e-06 8.3885e-08 0
0.0012514 -1.4926e-05 0
0.0014696 -2.2607e-05 0
0.00134 -1.1772e-05 0
0.0012559 -9.9863e-06 0
0.0015067 -2.2713e-05 0
0.001546 2.4469e-06 0
0.0014498 -1.3569e-05 0
0.0014109 1.7674e-05 0
0.0013613 -3.5396e-07 0
0.0014212 3.1803e-05 0
0.0014552 1.8453e-05 0
0.0014273 4.5752e-05 0
0.0014507 4.0214e-05 0
0.0014388 6.2432e-05 0
0.001431 5.9524e-05 0
0.0014439 8.146e-05 0
0.0014515 7.6546e-05 0
0.0013852 9.785e-05 0
0.0014291 9.3778e-05 0
0.0014772 0.00010557 0
0.001424 0.00010939 0
0.0013503 0.00010184 0
0.0014247 0.00011806 0
0.0014857 8.7626e-05 0
0.0013955 0.0001155 0
0.0013971 6.6582e-05 0
0.0014418 0.00010104 0
0.0014703 4.4753e-05 0
0.0014157 7.8203e-05 0
0.0014955 2.6723e-05 0
0.0014726 5.3241e-05 0
0.0014623 1.3694e-05 0
0.0014765 3.176e-05 0
0.0015564 6.1508e-06 0
0.0015057 1.6515e-05 0
0.0015386 2.7509e-06 0
0.0015213 7.5601e-06 0
0.0015159 7.9206e-07 0
0.0016125 3.0247e-06 0
0.0014889 7.9428e-08 0
0.0013669 9.8656e-07 0
0.0019125 2.9394e-07 0
0.001703 3.8075e-07 0
0.0017257 -6.3312e-08 0
0.0020403 9.71e-08 0
0.00099206 -1.0247e-07 0
0.0013385 -7.8654e-08 0
0.00046343 2.4389e-07 0
0.00068745 9.595e-08 0
0.00015182 -2.156e-07 0
0.00024827 -1.635e-08 0
4.8764e-05 5.9214e-08 0
8.2761e-05 -4.9879e-08 0
1.0305e-05 4.3193e-07 0
1.6011e-05 1.4972e-07 0
2.0846e-06 -4.555e-07 0
7.4918e-06 -1.2089e-07 0
1.1367e-06 -2.6467e-07 0
-2.3753e-06 -8.2616e-08 0
-4.4326e-07 5.1928e-07 0
2.1098e-06 1.1205e-07 0
0.0012595 -3.4669e-05 0
0.0014818 -4.6929e-05 0
0.0013474 -2.7082e-05 0
0.0012671 -2.9855e-05 0
0.0015225 -5.1079e-05 0
0.001563 -1.8604e-05 0
0.0014672 -4.0795e-05 0
0.0014357 5.2149e-07 0
0.0013859 -1.8465e-05 0
0.0014474 2.7723e-05 0
0.0014845 6.4509e-06 0
0.0014478 5.3986e-05 0
0.0014774 3.4179e-05 0
0.0014549 7.3422e-05 0
0.0014518 6.4701e-05 0
0.0014599 8.9589e-05 0
0.0014691 9.1093e-05 0
0.0014003 0.00010733 0
0.0014468 0.00011001 0
0.0014861 0.00012518 0
0.0014413 0.00012554 0
0.0013482 0.00013594 0
0.0014357 0.00014018 0
0.0014716 0.00013317 0
0.0013928 0.00014951 0
0.0013745 0.00011558 0
0.001424 0.00014655 0
0.0014451 8.7359e-05 0
0.0013881 0.00012821 0
0.0014737 5.7372e-05 0
0.0014425 9.8211e-05 0
0.001447 3.3126e-05 0
0.0014516 6.5287e-05 0
0.0015472 1.641e-05 0
0.0014893 3.7597e-05 0
0.001534 6.9229e-06 0
0.0015115 1.8647e-05 0
0.001514 2.8041e-06 0
0.0016082 7.984e-06 0
0.0014882 9.3859e-07 0
0.0013654 3.0666e-06 0
0.0019123 1.5305e-07 0
0.0017019 9.9957e-07 0
0.0017257 7.8478e-08 0
0.0020405 2.1177e-07 0
0.00099191 2.8518e-08 0
0.0013384 8.8826e-08 0
0.00046348 -1.8985e-07 0
0.00068672 9.7829e-09 0
0.00015194 1.1319e-07 0
0.00024926 -2.9771e-08 0
4.8647e-05 4.1762e-07 0
8.2785e-05 1.2895e-07 0
1.0271e-05 -4.2934e-07 0
1.4963e-05 -6.9459e-08 0
2.1275e-06 -2.9563e-07 0
8.0327e-06 -1.0056e-07 0
1.1231e-06 3.224e-07 0
-1.8769e-06 1.6253e-07 0
-4.7434e-07 -1.6123e-08 0
1.7453e-06 -8.4682e-08 0
0.0012809 -6.9582e-05 0
0.0015066 -8.4899e-05 0
0.001364 -5.8127e-05 0
0.0012909 -6.8637e-05 0
0.001552 -9.6285e-05 0
0.0015893 -4.6301e-05 0
0.001503 -8.4053e-05 0
0.0014628 -1.7888e-05 0
0.0014214 -5.2718e-05 0
0.0014784 1.1234e-05 0
0.0015216 -1.0241e-05 0
0.0014821 4.8092e-05 0
0.0015183 3.076e-05 0
0.0014841 8.6617e-05 0
0.0014899 6.7571e-05 0
0.0014795 0.00011364 0
0.0014959 0.00010333 0
0.001415 0.00012878 0
0.0014631 0.00013376 0
0.0014998 0.00014174 0
0.0014546 0.00015303 0
0.0013574 0.00015719 0
0.0014503 0.00016471 0
0.001469 0.00016829 0
0.001404 0.00017531 0
0.0013565 0.00016483 0
0.0014209 0.00018264 0
0.0014153 0.0001427 0
0.0013656 0.00017736 0
0.0014406 0.00010623 0
0.0014066 0.00015349 0
0.0014189 6.7686e-05 0
0.0014128 0.0001151 0
0.0015283 3.7602e-05 0
0.0014584 7.3943e-05 0
0.0015232 1.7458e-05 0
0.0014921 4.0554e-05 0
0.0015089 6.815e-06 0
0.001597 1.8908e-05 0
0.0014862 3.0455e-06 0
0.001361 7.7436e-06 0
0.0019115 6.4387e-07 0
0.0017009 2.7351e-06 0
0.0017254 -2.2495e-07 0
0.0020389 6.3049e-07 0
0.00099191 4.2125e-07 0
0.0013385 3.0895e-07 0
0.00046348 -2.2899e-07 0
0.00068751 8.1895e-08 0
0.00015195 1.169e-07 0
0.00024837 -8.3174e-08 0
4.8624e-05 4.3128e-07 0
8.3161e-05 1.4508e-07 0
1.0197e-05 -8.3922e-07 0
1.4904e-05 -1.4671e-07 0
2.2743e-06 3.8112e-07 0
7.5343e-06 2.2633e-08 0
1.1766e-06 6.7761e-07 0
-2.6314e-07 1.9429e-07 0
-5.8677e-07 -8.3453e-07 0
5.2581e-07 -1.8371e-07 0
0.0013196 -0.00011935 0
0.0015575 -0.00013225 0
0.0013962 -8.2026e-05 0
0.0013409 -0.00011853 0
0.0016186 -0.00015082 0
0.0016419 -9.1625e-05 0
0.0015715 -0.00012832 0
0.0015142 -4.2178e-05 0
0.0014864 -8.3086e-05 0
0.0015221 8.7284e-06 0
0.0015765 -2.775e-05 0
0.001519 4.7419e-05 0
0.001562 3.0203e-05 0
0.0015205 8.608e-05 0
0.0015324 8.1221e-05 0
0.0015118 0.00013005 0
0.0015394 0.00012158 0
0.0014356 0.00016362 0
0.0014951 0.00015673 0
0.0015113 0.00017763 0
0.0014692 0.00018624 0
0.0013671 0.0001831 0
0.0014567 0.00020277 0
0.0014761 0.00019272 0
0.0014128 0.00020835 0
0.0013516 0.00020176 0
0.0014297 0.00021275 0
0.0013917 0.0001954 0
0.0013598 0.00021599 0
0.0014023 0.00016647 0
0.0013773 0.00020614 0
0.0013775 0.00012057 0
0.0013672 0.00017451 0
0.0014945 7.3521e-05 0
0.0014112 0.00012637 0
0.0015017 3.8423e-05 0
0.0014564 7.7171e-05 0
0.0014975 1.689e-05 0
0.0015757 3.988e-05 0
0.0014813 6.4405e-06 0
0.0013502 1.7505e-05 0
0.0019097 2.2261e-06 0
0.0016971 6.4533e-06 0
0.0017247 2.292e-07 0
0.0020369 2.0662e-06 0
0.00099185 2.6058e-07 0
0.0013377 6.5674e-07 0
0.00046351 4.0306e-07 0
0.00068884 1.5144e-07 0
0.00015178 -2.1036e-07 0
0.00024711 2.4455e-08 0
4.8657e-05 -3.097e-07 0
8.2636e-05 -1.0078e-07 0
1.0282e-05 2.6542e-07 0
1.6309e-05 6.2635e-09 0
2.2524e-06 3.7552e-07 0
6.8107e-06 2.095e-07 0
1.1667e-06 -1.8236e-07 0
-2.5111e-07 -1.6422e-07 0
-4.3877e-07 -2.4488e-07 0
3.8579e-07 2.5561e-08 0
0.0014125 -0.00018926 0
0.0016876 -0.00023845 0
0.0014757 -0.0001332 0
0.0014311 -0.00017425 0
0.0017372 -0.00023474 0
0.0017211 -0.0001278 0
0.0016652 -0.00017637 0
0.0015812 -6.8874e-05 0
0.0015551 -0.00010706 0
0.0015828 3.7792e-06 0
0.0016348 -3.4761e-05 0
0.0015693 7.3281e-05 0
0.001613 3.6561e-05 0
0.0015579 0.00011756 0
0.001568 0.00010283 0
0.0015447 0.00014817 0
0.0015688 0.00015648 0
0.0014653 0.00018558 0
0.0015314 0.00019301 0
0.0015288 0.00021936 0
0.0015007 0.00022094 0
0.0013727 0.00023072 0
0.0014675 0.00024439 0
0.0014797 0.00022748 0
0.0014105 0.00025492 0
0.0013546 0.00022956 0
0.0014312 0.0002525 0
0.0013823 0.00023462 0
0.0013648 0.00024969 0
0.0013707 0.00022283 0
0.0013662 0.00024764 0
0.0013292 0.00018457 0
0.0013283 0.00023088 0
0.0014451 0.0001275 0
0.0013545 0.00018853 0
0.001464 7.3058e-05 0
0.0014016 0.00012952 0
0.0014752 3.6434e-05 0
0.0015378 7.4302e-05 0
0.0014704 1.4514e-05 0
0.0013296 3.567e-05 0
0.0019053 4.4751e-06 0
0.0016868 1.4074e-05 0
0.0017233 2.2671e-06 0
0.0020338 5.0399e-06 0
0.00099143 2.2002e-07 0
0.0013372 1.6229e-06 0
0.00046334 6.1177e-08 0
0.00068781 1.7749e-07 0
0.00015169 5.1431e-08 0
0.00024708 1.7242e-07 0
4.8656e-05 -9.6182e-07 0
8.2511e-05 -1.3848e-07 0
1.0405e-05 1.2438e-06 0
1.672e-05 9.3028e-08 0
2.1647e-06 -5.8901e-08 0
7.1647e-06 2.3917e-07 0
1.0879e-06 -1.2229e-06 0
-1.5493e-06 -3.246e-07 0
-4.0976e-07 1.1273e-06 0
1.4068e-06 1.9592e-07 0
0.0015487 -0.00030262 0
0.0017944 -0.00039782 0
0.0016189 -0.00027199 0
0.0015107 -0.00022874 0
0.001769 -0.00027956 0
0.0017534 -0.00014684 0
0.0016282 -0.00018822 0
0.0015895 -7.7229e-05 0
0.0014853 -0.00011424 0
0.0015891 -1.1752e-05 0
0.0015584 -4.6604e-05 0
0.0015903 6.9072e-05 0
0.0015657 2.7592e-05 0
0.0015871 0.00015415 0
0.00156 0.0001072 0
0.0015689 0.00020626 0
0.0015722 0.00018362 0
0.0014877 0.00022713 0
0.0015354 0.00024165 0
0.0015512 0.00025105 0
0.0015201 0.00027264 0
0.0013836 0.00027802 0
0.0014922 0.00028943 0
0.0014771 0.00028293 0
0.0014142 0.00030328 0
0.0013512 0.00026997 0
0.0014187 0.00030489 0
0.0013804 0.00026497 0
0.0013592 0.00029323 0
0.0013544 0.00026551 0
0.0013667 0.00028351 0
0.0012866 0.00024499 0
0.0013086 0.00027572 0
0.0013857 0.00019327 0
0.0013023 0.00024866 0
0.0014082 0.00012529 0
0.0013333 0.00019262 0
0.0014364 6.7355e-05 0
0.001479 0.00012356 0
0.0014493 3.0243e-05 0
0.0012928 6.5025e-05 0
0.0018959 1.039e-05 0
0.0016674 2.8331e-05 0
0.00172 4.3814e-06 0
0.0020265 1.0657e-05 0
0.00099041 1.3861e-06 0
0.001336 3.4153e-06 0
0.00046288 -9.0723e-07 0
0.00068498 7.0415e-07 0
0.00015173 4.2537e-07 0
0.00024777 2.0117e-07 0
4.872e-05 1.1514e-07 0
8.3646e-05 8.4056e-08 0
1.0338e-05 3.1064e-07 0
1.5062e-05 1.1325e-07 0
2.1999e-06 6.6736e-08 0
8.3079e-06 -9.8554e-08 0
1.1105e-06 -4.0095e-07 0
-2.1921e-06 5.1031e-08 0
-8.6e-07 6.8969e-07 0
1.9354e-06 9.7212e-10 0
0.0014102 -0.00035959 0
0.0014113 -0.00050655 0
0.0015379 -0.00063481 0
0.0013337 -0.00022472 0
0.0013992 -0.00027819 0
0.0015656 -0.00014541 0
0.0013082 -0.00017252 0
0.0014005 -7.2267e-05 0
0.0011941 -0.0001055 0
0.0014118 -1.1724e-05 0
0.0012755 -5.5254e-05 0
0.0014514 4.2989e-05 0
0.0012901 -6.6841e-06 0
0.0015119 0.0001242 0
0.0013453 6.1068e-05 0
0.0015455 0.0002274 0
0.0014569 0.00015214 0
0.0014839 0.00029332 0
0.0014823 0.00024884 0
0.0015563 0.00030775 0
0.0014893 0.00032044 0
0.001395 0.00031854 0
0.0014909 0.00034897 0
0.0014783 0.00033594 0
0.0014287 0.00035491 0
0.0013389 0.00033028 0
0.0014119 0.00035779 0
0.0013704 0.00030665 0
0.0013358 0.00034869 0
0.0013473 0.0002973 0
0.0013565 0.00032762 0
0.0012602 0.00029213 0
0.0013039 0.00031255 0
0.001329 0.00025768 0
0.0012692 0.00029769 0
0.0013383 0.00019092 0
0.0012647 0.00025625 0
0.0013777 0.00011359 0
0.0014018 0.00018456 0
0.0014127 5.4505e-05 0
0.0012338 0.00010737 0
0.0018782 2.3211e-05 0
0.0016348 5.1459e-05 0
0.001713 7.7794e-06 0
0.0020123 2.0699e-05 0
0.00098799 2.2726e-06 0
0.0013306 6.5886e-06 0
0.00046224 2.1678e-07 0
0.00068271 1.9475e-06 0
0.00015162 -1.5776e-07 0
0.0002481 4.6245e-07 0
4.8729e-05 1.3885e-06 0
8.4006e-05 1.2522e-07 0
1.0184e-05 -1.131e-06 0
1.3465e-05 1.7993e-07 0
2.2363e-06 -9.9041e-08 0
9.2206e-06 -3.7014e-07 0
1.1866e-06 1.17e-06 0
-2.138e-06 3.6059e-07 0
-1.0108e-06 -1.7089e-06 0
1.3519e-06 -2.0196e-07 0
0.00087086 -0.00037984 0
0.00079431 -0.00053863 0
0.00091652 -0.00079333 0
0.00092289 -0.00023783 0
0.0009558 -0.00035564 0
0.0012304 -0.00014839 0
0.00095746 -0.00022066 0
0.0011001 -9.7528e-05 0
0.00090397 -0.00013093 0
0.0011101 -4.2054e-05 0
0.0010132 -7.0113e-05 0
0.0011386 1.1546e-05 0
0.00099839 -3.2163e-05 0
0.0012299 5.9537e-05 0
0.00098752 -3.7855e-06 0
0.0013547 0.00014761 0
0.0011121 5.3518e-05 0
0.0013905 0.00028028 0
0.0012565 0.00015993 0
0.0015155 0.0003677 0
0.0013693 0.00028932 0
0.0013805 0.00037928 0
0.0014209 0.00038373 0
0.0014774 0.00038015 0
0.0014072 0.0004138 0
0.0013284 0.00038806 0
0.0014156 0.00041133 0
0.001348 0.00036866 0
0.0013151 0.00040353 0
0.0013326 0.00033601 0
0.0013233 0.00038337 0
0.0012467 0.00032515 0
0.0012928 0.00035384 0
0.0012876 0.00031136 0
0.0012566 0.00033601 0
0.0012651 0.00025854 0
0.0012119 0.00031068 0
0.0013003 0.00017361 0
0.0013157 0.00024951 0
0.0013564 9.1599e-05 0
0.0011522 0.00016181 0
0.0018474 4.2286e-05 0
0.0015831 8.5061e-05 0
0.0016997 1.5622e-05 0
0.0019876 3.6526e-05 0
0.00098306 2.8503e-06 0
0.0013182 1.246e-05 0
0.000461 2.6072e-06 0
0.0006811 3.9891e-06 0
0.00015122 -3.8729e-07 0
0.00024729 1.0765e-06 0
4.854e-05 3.465e-07 0
8.2457e-05 1.7484e-07 0
1.0226e-05 -2.9575e-07 0
1.4608e-05 7.4745e-08 0
2.2121e-06 -5.8173e-07 0
8.7137e-06 -1.0536e-07 0
1.1596e-06 1.3595e-06 0
-1.7441e-06 1.0029e-07 0
-3.136e-07 -1.6413e-06 0
7.9413e-07 -6.7022e-08 0
0.00061651 -0.00047907 0
0.00087815 -0.00047415 0
0.00071082 -0.00048789 0
0.00065059 -0.00029984 0
0.00084373 -0.00035457 0
0.00098252 -0.00018627 0
0.00079571 -0.00025655 0
0.00088374 -0.00010523 0
0.00072156 -0.00016727 0
0.00091432 -6.5706e-05 0
0.00084922 -9.1845e-05 0
0.00090636 -2.9544e-05 0
0.00087567 -3.2011e-05 0
0.00091492 6.183e-06 0
0.0008298 -3.7696e-06 0
0.0010004 3.8556e-05 0
0.00080519 -5.7151e-06 0
0.0011082 0.0001374 0
0.00086211 2.4934e-05 0
0.0013535 0.0003103 0
0.0010648 0.00014104 0
0.0013012 0.00042394 0
0.0012385 0.00030962 0
0.0014441 0.00043592 0
0.0012994 0.00042875 0
0.0013154 0.00043215 0
0.001378 0.0004641 0
0.0013243 0.0004304 0
0.001308 0.00045403 0
0.0013019 0.00039454 0
0.0012849 0.00043901 0
0.0012303 0.00035793 0
0.0012561 0.00040563 0
0.0012637 0.00034896 0
0.0012472 0.00037351 0
0.0012028 0.00031938 0
0.0011836 0.00035233 0
0.0012114 0.000239 0
0.0012358 0.00030934 0
0.0012789 0.00014351 0
0.0010543 0.00022394 0
0.001799 6.8982e-05 0
0.0015079 0.00012898 0
0.0016767 2.697e-05 0
0.0019468 5.9473e-05 0
0.00097431 7.2807e-06 0
0.0012986 2.2002e-05 0
0.00045826 3.4791e-06 0
0.00067726 7.5006e-06 0
0.00015053 1.0039e-06 0
0.00024526 1.7807e-06 0
4.8254e-05 -1.2067e-06 0
7.9986e-05 6.1331e-07 0
1.0347e-05 1.3717e-06 0
1.8017e-05 -1.5514e-07 0
2.1577e-06 -5.0298e-07 0
5.6573e-06 2.2061e-07 0
1.0859e-06 -3.2659e-07 0
-2.7368e-07 -2.033e-07 0
1.5941e-07 1.285e-06 0
7.1257e-07 1.0944e-07 0
0.0005547 -0.00037695 0
0.00068009 -0.00047856 0
0.00065165 -0.00056777 0
0.00053855 -0.00031772 0
0.00071524 -0.00035658 0
0.00081942 -0.00021893 0
0.00063367 -0.00024037 0
0.00069504 -0.00013372 0
0.00055955 -0.00017372 0
0.00074598 -5.9528e-05 0
0.00065657 -0.00012066 0
0.00079218 -2.0077e-05 0
0.00068947 -6.6319e-05 0
0.00079421 4.835e-06 0
0.00074369 2.3085e-06 0
0.00075769 7.7139e-06 0
0.0007656 3.2458e-05 0
0.00074775 3.2728e-06 0
0.00065364 4.7252e-06 0
0.0010167 0.00011091 0
0.00068317 -8.5e-06 0
0.0010825 0.00032528 0
0.00089101 0.00011634 0
0.0013301 0.00046007 0
0.0010654 0.0003139 0
0.0012655 0.00047457 0
0.0012354 0.00045957 0
0.0012997 0.0004742 0
0.0012622 0.00049396 0
0.0012634 0.00045802 0
0.0012613 0.00048536 0
0.0011977 0.00040731 0
0.0012016 0.00045922 0
0.0012453 0.00037685 0
0.0012161 0.00041827 0
0.0011607 0.00036534 0
0.0011724 0.00038731 0
0.0011237 0.00030423 0
0.001178 0.00035678 0
0.0011823 0.00020356 0
0.00094933 0.00028764 0
0.0017299 0.00010649 0
0.0014101 0.00018064 0
0.0016398 4.1697e-05 0
0.0018836 9.0405e-05 0
0.00095979 1.6892e-05 0
0.001272 3.6008e-05 0
0.00045303 4.0383e-06 0
0.00066655 1.2657e-05 0
0.00014922 1.7252e-06 0
0.00024201 3.0883e-06 0
4.7875e-05 -3.7522e-07 0
7.8206e-05 1.065e-06 0
1.0267e-05 2.2308e-07 0
2.0015e-05 -3.6788e-09 0
2.1422e-06 1.1193e-07 0
2.7003e-06 3.2987e-08 0
1.0534e-06 -1.6115e-06 0
1.7641e-06 -1.9065e-08 0
-3.8692e-07 2.4643e-06 0
4.2426e-07 7.0534e-08 0
0.00039207 -0.00039955 0
0.00057398 -0.00037034 0
0.00053481 -0.00047999 0
0.00040452 -0.00027594 0
0.00063497 -0.00035034 0
0.0007174 -0.00021707 0
0.00056413 -0.00026846 0
0.00057791 -0.00015843 0
0.00045359 -0.00017232 0
0.00057697 -0.00010314 0
0.0005646 -9.8701e-05 0
0.000607 -4.3804e-05 0
0.00053819 -8.5273e-05 0
0.00068565 6.3798e-06 0
0.00051833 -5.1212e-05 0
0.00071209 4.8082e-05 0
0.00064321 1.0696e-05 0
0.00058806 1.9012e-05 0
0.00066903 6.9054e-05 0
0.00068973 -3.205e-05 0
0.00056393 1.2405e-05 0
0.00071955 8.5452e-05 0
0.00055412 -2.7799e-05 0
0.0010704 0.00033297 0
0.00070571 9.1125e-05 0
0.0011191 0.00047317 0
0.00095497 0.00031507 0
0.0012391 0.00049829 0
0.0010924 0.00046822 0
0.0012215 0.00050348 0
0.0012111 0.00050806 0
0.00115 0.00046765 0
0.001152 0.00050223 0
0.0012158 0.0004124 0
0.0011561 0.00046434 0
0.0011344 0.00039378 0
0.0011528 0.00042606 0
0.0010515 0.0003632 0
0.0011515 0.00039118 0
0.0010731 0.00026581 0
0.0008487 0.00034523 0
0.0016397 0.00015212 0
0.0012949 0.00023741 0
0.0015859 6.4927e-05 0
0.0017973 0.00012777 0
0.00093658 2.761e-05 0
0.0012332 5.5565e-05 0
0.00044439 6.8916e-06 0
0.00064774 1.8999e-05 0
0.00014671 1.0313e-06 0
0.00023585 5.8413e-06 0
4.7383e-05 2.1457e-06 0
7.9364e-05 1.298e-06 0
9.9861e-06 -1.9931e-06 0
1.6947e-05 4.2668e-07 0
2.2247e-06 1.2035e-06 0
4.5682e-06 -2.1456e-07 0
1.0329e-06 -4.0513e-07 0
1.1953e-06 1.745e-07 0
-1.0626e-06 8.6794e-07 0
5.0728e-07 5.9479e-08 0
0.00034678 -0.00037064 0
0.00051864 -0.00039752 0
0.00041746 -0.00041496 0
0.0002985 -0.00028379 0
0.00047886 -0.00024637 0
0.00055556 -0.00018973 0
0.00045664 -0.00022022 0
0.00048354 -0.00013417 0
0.00036882 -0.00020837 0
0.00049993 -9.6962e-05 0
0.00044611 -0.00012126 0
0.00050239 -6.3897e-05 0
0.00049586 -4.7329e-05 0
0.00049198 -4.2865e-05 0
0.00045648 -3.4527e-05 0
0.00058347 9.782e-06 0
0.00042974 -4.0437e-05 0
0.00056665 8.3949e-05 0
0.00050642 1.4849e-05 0
0.00060329 2.9308e-05 0
0.00058757 8.5148e-05 0
0.00043833 -5.6843e-05 0
0.00049678 2.1438e-05 0
0.0007085 7.5699e-05 0
0.00043087 -3.491e-05 0
0.0008226 0.00032848 0
0.00060563 7.965e-05 0
0.0010715 0.00046342 0
0.0007637 0.00030843 0
0.0011451 0.00051182 0
0.0010341 0.00045189 0
0.0010889 0.00051462 0
0.0010813 0.00051305 0
0.0011688 0.00046096 0
0.001082 0.00049539 0
0.0011077 0.00041632 0
0.0011013 0.00046785 0
0.001003 0.00040608 0
0.0011437 0.00042122 0
0.00096231 0.00032857 0
0.00077072 0.00038898 0
0.0015293 0.00020098 0
0.0011651 0.00029687 0
0.0015133 9.8031e-05 0
0.0016936 0.00016892 0
0.00090116 3.8181e-05 0
0.0011722 8.0247e-05 0
0.00043163 1.1809e-05 0
0.00062401 2.7212e-05 0
0.00014227 2.357e-06 0
0.00022462 9.6259e-06 0
4.6668e-05 2.7252e-06 0
8.2454e-05 1.9438e-06 0
9.5226e-06 -2.1444e-06 0
9.5419e-06 4.8032e-07 0
2.3032e-06 1.2306e-06 0
1.0878e-05 1.7066e-07 0
1.0369e-06 3.2581e-07 0
-2.9981e-06 -1.5181e-07 0
-7.5882e-07 -1.2596e-06 0
1.4348e-06 2.8484e-07 0
0.00020443 -0.00027358 0
0.00043943 -0.00035349 0
0.00036769 -0.00042542 0
0.00031124 -0.0002735 0
0.00045816 -0.00030143 0
0.0004955 -0.00020723 0
0.00030969 -0.00017649 0
0.00034533 -0.00012708 0
0.00027823 -0.00010191 0
0.00035276 -7.8086e-05 0
0.00036372 -0.00015717 0
0.00042493 -4.7026e-05 0
0.00032374 -8.1158e-05 0
0.00043932 -9.3698e-06 0
0.00038661 -3.9899e-05 0
0.00041387 -4.108e-05 0
0.00042553 9.498e-06 0
0.00041574 9.3154e-06 0
0.00033533 -2.9741e-05 0
0.0005772 9.9451e-05 0
0.00040305 1.7435e-05 0
0.00039838 2.8701e-05 0
0.00050078 7.803e-05 0
0.00048695 -5.5029e-05 0
0.00040011 3.1495e-05 0
0.00047088 8.2912e-05 0
0.00041819 -2.8376e-05 0
0.00074968 0.00030114 0
0.00041596 9.11e-05 0
0.000963 0.00043907 0
0.00068408 0.00027009 0
0.00098204 0.00051302 0
0.00089419 0.00043552 0
0.0011011 0.00050359 0
0.00097525 0.00048334 0
0.001064 0.00044487 0
0.0010156 0.00049161 0
0.00097207 0.0004311 0
0.0011189 0.00045409 0
0.00086458 0.00038611 0
0.00073093 0.00041717 0
0.0014011 0.00025286 0
0.0010271 0.00035351 0
0.0014224 0.00013482 0
0.0015743 0.00021301 0
0.00085083 5.2561e-05 0
0.0010881 0.00010733 0
0.00041354 1.7345e-05 0
0.00059303 3.8743e-05 0
0.00013538 6.3197e-06 0
0.00020964 1.3389e-05 0
4.5301e-05 1.9703e-07 0
8.1681e-05 3.4249e-06 0
9.0725e-06 -3.8261e-08 0
4.7425e-06 2.4985e-07 0
2.1808e-06 5.2082e-07 0
1.5488e-05 8.0076e-07 0
1.1277e-06 -1.8921e-07 0
-6.8352e-06 -5.5931e-07 0
-3.5995e-07 -3.1608e-07 0
2.6958e-06 4.4443e-07 0
0.00014776 -0.00029724 0
0.00035196 -0.00027305 0
0.00027431 -0.00029502 0
0.0001022 -0.0001867 0
0.00041787 -0.00022473 0
0.00050914 -0.00018801 0
0.00032985 -0.00024598 0
0.00032362 -0.00015661 0
0.00013223 -8.0518e-05 0
0.00032107 -7.3853e-05 0
0.00030882 -7.5901e-05 0
0.00025726 -7.2902e-05 0
0.00029781 -4.5891e-05 0
0.00035835 -1.7193e-05 0
0.00022334 -6.1884e-05 0
0.00037769 2.0138e-05 0
0.00031143 -2.1584e-05 0
0.00029671 -2.8695e-05 0
0.00035173 2.701e-05 0
0.00041689 1.5227e-05 0
0.00027616 -9.2602e-06 0
0.00034621 8.2847e-05 0
0.00033694 1.2688e-05 0
0.00047379 2.5819e-05 0
0.00034296 6.0433e-05 0
0.00031393 -1.9916e-05 0
0.00040999 2.8981e-05 0
0.00040855 9.0749e-05 0
0.00030816 2.1945e-05 0
0.00064606 0.000251 0
0.00034309 7.3415e-05 0
0.00076152 0.00040771 0
0.00055248 0.00024426 0
0.00097607 0.00049535 0
0.00075537 0.0003784 0
0.00098914 0.00046873 0
0.00087497 0.00045471 0
0.00093823 0.00044548 0
0.001043 0.00047451 0
0.0007901 0.00042993 0
0.00071559 0.00043358 0
0.0012604 0.00030767 0
0.00090065 0.00039912 0
0.001313 0.00017044 0
0.0014305 0.00025981 0
0.00078539 7.2296e-05 0
0.0009917 0.00013404 0
0.00038773 2.349e-05 0
0.00054502 5.3506e-05 0
0.0001262 9.7978e-06 0
0.00019497 1.7029e-05 0
4.2696e-05 -1.4502e-06 0
7.3426e-05 5.2969e-06 0
8.8067e-06 2.5496e-06 0
6.7953e-06 4.7341e-07 0
1.7549e-06 -3.9432e-07 0
1.3318e-05 8.596e-07 0
1.398e-06 -5.5564e-07 0
-6.4511e-06 -3.8946e-07 0
-8.3675e-07 1.1921e-06 0
3.0786e-06 1.7588e-07 0
0.0001129 -0.00023145 0
0.00028937 -0.00018975 0
0.00021118 -0.00034334 0
-1.1281e-05 -0.00016097 0
0.00031617 -0.00023674 0
0.00034483 -0.00011531 0
0.00027716 -0.00015045 0
0.00017621 -0.00013843 0
0.00016198 -0.00014227 0
0.00029694 -9.05e-05 0
0.0001865 -7.7322e-05 0
0.00024158 -2.3982e-05 0
0.00020482 -6.8002e-05 0
0.00023098 -5.4835e-05 0
0.0002451 -2.6649e-06 0
0.00027467 -1.9144e-06 0
0.0001869 -3.923e-05 0
0.0002537 2.0129e-05 0
0.00022769 -9.8653e-06 0
0.00035146 6.3598e-07 0
0.0002567 2.7369e-05 0
0.00019257 1.4717e-05 0
0.0002701 1.3257e-05 0
0.00038226 4.7345e-05 0
0.0002176 1.2649e-05 0
0.00032216 3.1832e-05 0
0.00027408 1.6402e-05 0
0.00028442 3.9074e-05 0
0.000329 6.649e-05 0
0.00035998 7.6952e-05 0
0.00027062 3.8338e-05 0
0.00043242 0.00019266 0
0.00026112 8.0075e-05 0
0.00072653 0.0003736 0
0.00042008 0.00018689 0
0.0008432 0.00043987 0
0.00061344 0.00030883 0
0.00086946 0.00044327 0
0.00087687 0.00043175 0
0.0007323 0.00045479 0
0.00067602 0.0004283 0
0.0011161 0.00035939 0
0.00079871 0.00042489 0
0.0011837 0.0002057 0
0.0012581 0.0003053 0
0.00070643 9.3537e-05 0
0.00088727 0.00015927 0
0.00035195 3.1461e-05 0
0.00047728 6.9447e-05 0
0.00011494 1.1381e-05 0
0.00017963 2.1127e-05 0
3.8551e-05 1.3059e-07 0
6.0728e-05 7.0862e-06 0
8.4921e-06 2.9787e-06 0
1.0825e-05 1.1909e-06 0
1.2451e-06 -1.7045e-06 0
7.714e-06 4.0371e-07 0
1.549e-06 4.9324e-07 0
-3.05e-06 1.3215e-07 0
-1.5915e-06 6.9764e-08 0
1.9235e-06 -2.103e-07 0
6.7188e-05 -0.00018037 0
0.00024454 -0.00020051 0
9.9194e-05 -0.00027815 0
-2.7172e-06 -0.00011153 0
0.00024464 -0.00020177 0
0.00025991 -0.00011012 0
0.00020144 -9.8895e-05 0
0.00014426 -9.3997e-06 0
5.7367e-05 -0.00018829 0
0.00013934 -0.00011006 0
0.00018402 -3.5234e-05 0
0.00016441 -4.6707e-05 0
0.00015031 -2.1806e-05 0
0.00019549 -7.5382e-07 0
0.00011936 -7.6566e-05 0
0.00021303 -1.9125e-05 0
0.00015962 1.8915e-05 0
0.00012422 -7.6212e-06 0
0.00018224 -1.4654e-05 0
0.00029761 1.7067e-05 0
0.0001468 -6.3615e-06 0
0.00016748 2.4386e-05 0
0.00016685 8.1384e-06 0
0.00023727 1.1138e-05 0
0.00023534 4.541e-05 0
0.00022524 6.5584e-06 0
0.00015597 -1.7565e-05 0
0.00025678 6.0541e-05 0
0.00017086 2.6514e-05 0
0.0002893 7.9924e-05 0
0.00027042 5.6842e-05 0
0.00019869 4.1816e-05 0
0.00021265 6.9267e-05 0
0.00039122 0.00015874 0
0.00020687 7.4967e-05 0
0.00057029 0.00029723 0
0.0002755 9.9191e-05 0
0.00071081 0.00037814 0
0.00056877 0.00027533 0
0.00065681 0.00044768 0
0.00054352 0.00035602 0
0.00096933 0.0003952 0
0.00069005 0.00041068 0
0.0010323 0.00024043 0
0.0010623 0.00033713 0
0.00061451 0.00011223 0
0.00076317 0.00018071 0
0.00030584 4.1109e-05 0
0.00039831 8.3932e-05 0
0.00010096 1.2392e-05 0
0.0001566 2.5585e-05 0
3.3069e-05 2.6709e-06 0
4.8985e-05 8.8052e-06 0
7.7783e-06 1.9526e-06 0
1.0913e-05 1.7071e-06 0
9.0677e-07 -1.828e-06 0
4.8926e-06 2.9632e-07 0
1.4388e-06 2.4177e-06 0
-9.3954e-07 3.0973e-07 0
-1.4981e-06 -1.7894e-06 0
7.7718e-07 -2.8383e-07 0
2.6377e-05 -0.00014586 0
0.00011168 -0.00014445 0
0.00014892 -0.00014406 0
-5.1324e-05 -0.00010668 0
0.00015917 -3.9712e-05 0
0.00020384 -5.7896e-05 0
0.00012059 -7.177e-05 0
0.00010513 -3.3428e-05 0
4.7723e-05 -9.9099e-05 0
9.7376e-05 -6.5277e-05 0
7.3345e-05 -2.4161e-05 0
0.00014266 -1.7317e-05 0
8.6413e-05 -1.0068e-05 0
0.00011391 -2.7803e-05 0
0.00010314 -6.4575e-05 0
0.0001255 -3.0943e-05 0
9.8544e-05 4.7359e-05 0
0.000133 3.8892e-05 0
7.1842e-05 -4.9658e-05 0
0.00015913 -2.1038e-05 0
0.00014211 1.5817e-05 0
0.00011149 -8.4551e-07 0
0.000102 2.1437e-05 0
0.00019357 5.0181e-05 0
9.8694e-05 -1.5854e-05 0
0.00014787 -4.8439e-06 0
0.00015139 2.1199e-05 0
0.0001288 -6.6468e-06 0
0.00011371 2.7243e-05 0
0.00022676 8.7904e-05 0
0.0001255 -2.069e-06 0
0.00017303 6.0545e-05 0
0.00012606 4.091e-05 0
0.00019831 4.7521e-05 0
0.00020993 0.0001054 0
0.00025186 0.0001009 0
0.00013034 9.479e-06 0
0.00041773 0.0001959 0
0.0002081 8.0035e-05 0
0.00049775 0.00036317 0
0.00027828 0.0001837 0
0.00079204 0.00038936 0
0.00049686 0.00030989 0
0.00085001 0.0002623 0
0.00082351 0.00032414 0
0.00050677 0.00012664 0
0.00059984 0.00018608 0
0.0002495 4.9081e-05 0
0.00031103 9.2361e-05 0
8.3634e-05 1.459e-05 0
0.00012246 2.9248e-05 0
2.6331e-05 3.5656e-06 0
3.8585e-05 9.9914e-06 0
6.7838e-06 1.7878e-06 0
7.72e-06 2.1146e-06 0
4.7337e-07 -1.2911e-06 0
4.5985e-06 3.8348e-07 0
1.2937e-06 2.1155e-06 0
-1.1601e-06 2.5137e-07 0
-8.1413e-07 -2.7368e-06 0
2.3254e-07 -1.8089e-07 0
2.695e-06 -0.0001065 0
6.9285e-05 -5.0498e-05 0
8.0801e-05 -0.00013978 0
-4.1446e-05 -0.00011754 0
9.7905e-05 4.2136e-05 0
0.0001645 -3.5094e-05 0
4.9728e-05 -1.4201e-05 0
1.7662e-05 -2.0562e-05 0
3.684e-06 -7.8706e-05 0
7.2727e-05 -3.8641e-05 0
5.0022e-05 -4.0313e-05 0
3.2799e-05 -1.799e-05 0
3.7444e-05 2.1564e-05 0
7.4145e-05 -1.9877e-06 0
4.2157e-05 -3.5483e-05 0
7.2378e-05 -2.1213e-05 0
3.9349e-05 -8.3611e-06 0
7.8327e-05 1.016e-05 0
5.1275e-05 5.9971e-06 0
6.4015e-05 -6.2178e-06 0
5.4025e-05 -5.7399e-06 0
0.00010328 1.2168e-05 0
3.7719e-05 7.0631e-07 0
9.0759e-05 4.1915e-06 0
7.43e-05 4.2506e-06 0
6.0185e-05 3.4544e-06 0
6.5815e-05 1.6878e-05 0
0.00013665 2.4659e-05 0
1.8324e-05 -1.7578e-05 0
7.2348e-05 1.0322e-05 0
0.00011352 3.6234e-05 0
8.679e-05 2.8823e-05 0
4.4867e-05 2.0139e-06 0
0.00017531 7.3778e-05 0
3.5005e-05 2.6469e-05 0
0.00011713 4.3113e-05 0
0.00014627 4.3185e-05 0
0.00012015 4.4931e-06 0
0.00010328 3.3864e-05 0
0.00022143 0.00016414 0
-7.3325e-07 1.064e-05 0
0.00052588 0.00029282 0
0.00019826 0.00011631 0
0.00060008 0.00023525 0
0.00047451 0.00021233 0
0.00036811 0.00012448 0
0.00036211 0.00014261 0
0.00017946 5.116e-05 0
0.00019695 7.7384e-05 0
6.1605e-05 1.5942e-05 0
7.5196e-05 2.7805e-05 0
1.8469e-05 3.8872e-06 0
2.5555e-05 8.313e-06 0
5.3362e-06 1.8583e-06 0
4.2084e-06 2.9658e-06 0
3.5616e-09 -7.9958e-07 0
3.3834e-06 -3.0872e-07 0
1.2259e-06 8.5787e-07 0
-1.1596e-06 8.3685e-07 0
-2.8936e-07 -4.0753e-07 0
5.0784e-07 -4.9751e-07 0
6.0742e-06 -5.8845e-05 0
0 0 0
0.00010476 -6.0976e-05 0
-0.0001273 -5.0714e-05 0
0 0 0
9.8956e-05 2.3447e-05 0
0 0 0
1.1243e-05 -1.6244e-05 0
0 0 0
3.2427e-05 -1.0809e-05 0
0 0 0
5.5424e-06 -1.4623e-05 0
0 0 0
5.4187e-05 8.8929e-06 0
0 0 0
-7.9909e-06 -9.1841e-06 0
0 0 0
4.1841e-05 -8.2424e-06 0
0 0 0
3.123e-05 1.8631e-05 0
0 0 0
-4.8223e-06 -1.6032e-05 0
0 0 0
8.011e-05 7.4966e-06 0
0 0 0
-2.5659e-05 1.2282e-05 0
0 0 0
7.0909e-05 -9.6875e-06 0
0 0 0
1.0859e-05 9.2694e-06 0
0 0 0
3.3064e-05 2.4821e-05 0
0 0 0
4.2623e-05 -1.0738e-05 0
0 0 0
4.4516e-05 3.7539e-05 0
0 0 0
6.6006e-05 2.009e-05 0
0 0 0
-1.0761e-05 -1.8511e-05 0
0 0 0
0.00015962 9.1526e-05 0
0 0 0
0.00023299 0.00010899 0
0 0 0
0.00015183 6.5845e-05 0
0 0 0
8.0052e-05 3.2349e-05 0
0 0 0
2.5921e-05 9.6689e-06 0
0 0 0
9.2767e-06 3.0283e-06 0
0 0 0
1.7931e-06 1.0465e-06 0
0 0 0
4.1275e-07 -3.1362e-07 0
0 0 0
2.9976e-07 4.4115e-07 0
0 0 0
-4.9148e-07 -2.5815e-07 0
0 0 0
CELL_DATA 1800
SCALARS SRR double 1
LOOKUP_TABLE srr
1.180467e+00
1.209960e+00
1.180307e+00
1.203925e+00
1.227522e+00
1.225969e+00
1.190670e+00
1.247284e+00
1.196330e+00
1.222152e+00
1.240644e+00
1.200720e+00
1.285761e+00
1.258431e+00
1.428096e+00
1.359944e+00
1.462832e+00
1.450667e+00
1.532449e+00
1.403894e+00
1.676397e+00
1.859962e+00
1.173359e+00
5.700635e-01
2.096673e-01
5.810793e-02
1.892504e-02
9.725145e-04
1.941407e-03
-6.795066e-04
1.178218e+00
1.214065e+00
1.213247e+00
1.194389e+00
1.232667e+00
1.221915e+00
1.208002e+00
1.248233e+00
1.206400e+00
1.262343e+00
1.238234e+00
1.259917e+00
1.323505e+00
1.281939e+00
1.409814e+00
1.365264e+00
1.454375e+00
1.448345e+00
1.559791e+00
1.428356e+00
1.614422e+00
1.736887e+00
1.090093e+00
5.357237e-01
1.991929e-01
5.663118e-02
1.840362e-02
1.178868e-03
2.086542e-03
-1.237432e-03
1.157736e+00
1.253347e+00
1.214480e+00
1.183744e+00
1.243524e+00
1.219730e+00
1.210853e+00
1.256469e+00
1.231264e+00
1.259370e+00
1.274723e+00
1.280159e+00
1.343870e+00
1.300479e+00
1.425028e+00
1.350701e+00
1.463391e+00
1.488018e+00
1.572764e+00
1.339264e+00
1.470601e+00
1.653210e+00
1.073536e+00
5.481258e-01
2.066119e-01
6.175330e-02
1.925273e-02
1.637020e-03
2.143287e-03
-2.636331e-04
1.188985e+00
1.247502e+00
1.195331e+00
1.192258e+00
1.247587e+00
1.224644e+00
1.216548e+00
1.269146e+00
1.231783e+00
1.284293e+00
1.284781e+00
1.294867e+00
1.364675e+00
1.318812e+00
1.416431e+00
1.378687e+00
1.509618e+00
1.473193e+00
1.469516e+00
1.201691e+00
1.390793e+00
1.637018e+00
1.096762e+00
5.678505e-01
2.172095e-01
6.613060e-02
1.997138e-02
2.575059e-03
1.529007e-03
-1.075228e-03
1.171921e+00
1.258958e+00
1.211982e+00
1.198070e+00
1.240430e+00
1.220143e+00
1.230600e+00
1.274161e+00
1.242984e+00
1.286303e+00
1.306675e+00
1.307463e+00
1.369005e+00
1.326725e+00
1.454890e+00
1.428476e+00
1.462821e+00
1.362341e+00
1.351960e+00
1.131304e+00
1.373968e+00
1.653512e+00
1.128536e+00
5.861393e-01
2.273111e-01
6.892164e-02
2.115639e-02
2.599947e-03
2.129076e-03
-5.598132e-04
1.193783e+00
1.253853e+00
1.216456e+00
1.172441e+00
1.238621e+00
1.242326e+00
1.232838e+00
1.273215e+00
1.247161e+00
1.306308e+00
1.318793e+00
1.290015e+00
1.398040e+00
1.373371e+00
1.484261e+00
1.368972e+00
1.339876e+00
1.270512e+00
1.297698e+00
1.117106e+00
1.382248e+00
1.682133e+00
1.157096e+00
6.022725e-01
2.350368e-01
7.102861e-02
2.216995e-02
2.500983e-03
1.607560e-03
-1.971435e-04
1.166792e+00
1.254414e+00
1.216894e+00
1.170417e+00
1.262189e+00
1.241003e+00
1.220539e+00
1.286326e+00
1.261710e+00
1.309382e+00
1.298729e+00
1.326037e+00
1.456433e+00
1.370480e+00
1.411826e+00
1.252125e+00
1.260003e+00
1.240187e+00
1.287270e+00
1.122086e+00
1.400924e+00
1.712964e+00
1.181783e+00
6.151990e-01
2.407531e-01
7.287683e-02
2.229468e-02
3.485074e-03
9.391470e-04
2.248950e-04
1.186154e+00
1.257835e+00
1.216739e+00
1.175221e+00
1.253624e+00
1.231846e+00
1.234003e+00
1.297415e+00
1.253080e+00
1.297206e+00
1.338746e+00
1.380889e+00
1.431765e+00
1.280598e+00
1.311184e+00
1.184915e+00
1.242899e+00
1.240831e+00
1.290578e+00
1.133751e+00
1.426106e+00
1.741892e+00
1.202832e+00
6.244892e-01
2.452921e-01
7.385696e-02
2.227356e-02
4.106837e-03
5.452369e-04
1.260434e-03
1.166991e+00
1.247200e+00
1.213823e+00
1.166426e+00
1.256966e+00
1.241801e+00
1.236303e+00
1.285240e+00
1.250286e+00
1.337688e+00
1.378597e+00
1.339225e+00
1.336106e+00
1.193485e+00
1.261860e+00
1.173662e+00
1.251485e+00
1.248176e+00
1.297354e+00
1.152088e+00
1.453833e+00
1.768182e+00
1.218785e+00
6.314644e-01
2.485377e-01
7.412987e-02
2.294562e-02
3.557649e-03
4.833853e-04
9.476629e-04
1.183127e+00
1.261682e+00
1.215644e+00
1.173888e+00
1.256868e+00
1.234450e+00
1.228584e+00
1.291376e+00
1.284485e+00
1.356283e+00
1.325488e+00
1.248334e+00
1.265447e+00
1.158949e+00
1.256954e+00
1.184008e+00
1.263967e+00
1.254536e+00
1.309385e+00
1.175645e+00
1.481527e+00
1.790508e+00
1.229552e+00
6.372156e-01
2.496940e-01
7.473191e-02
2.370394e-02
2.944147e-03
1.326993e-03
7.174216e-04
1.174022e+00
1.244148e+00
1.205535e+00
1.159826e+00
1.247846e+00
1.234641e+00
1.237716e+00
1.311557e+00
1.281259e+00
1.299482e+00
1.248692e+00
1.196503e+00
1.243785e+00
1.158519e+00
1.267758e+00
1.198440e+00
1.272914e+00
1.262338e+00
1.328281e+00
1.201475e+00
1.507414e+00
1.806771e+00
1.237238e+00
6.412150e-01
2.496787e-01
7.559145e-02
2.340759e-02
2.995343e-03
1.758579e-03
4.736072e-05
1.157330e+00
1.229227e+00
1.194257e+00
1.159670e+00
1.253152e+00
1.238894e+00
1.241972e+00
1.295740e+00
1.231370e+00
1.244087e+00
1.215757e+00
1.185581e+00
1.246091e+00
1.169044e+00
1.282271e+00
1.209494e+00
1.279422e+00
1.276375e+00
1.351651e+00
1.227641e+00
1.528344e+00
1.817542e+00
1.242927e+00
6.428696e-01
2.502554e-01
7.609295e-02
2.270218e-02
3.399483e-03
1.409088e-03
-3.203018e-04
1.172694e+00
1.244673e+00
1.207980e+00
1.167700e+00
1.253532e+00
1.237789e+00
1.228291e+00
1.262601e+00
1.198573e+00
1.227466e+00
1.212063e+00
1.189379e+00
1.255731e+00
1.182974e+00
1.293875e+00
1.215947e+00
1.290025e+00
1.296525e+00
1.376879e+00
1.250949e+00
1.542593e+00
1.825042e+00
1.246172e+00
6.432548e-01
2.511901e-01
7.592988e-02
2.287226e-02
3.690714e-03
1.119507e-03
1.342648e-04
1.180369e+00
1.260521e+00
1.220735e+00
1.175223e+00
1.260548e+00
1.235859e+00
1.213782e+00
1.248381e+00
1.192838e+00
1.227386e+00
1.215862e+00
1.198110e+00
1.268574e+00
1.194072e+00
1.299956e+00
1.224496e+00
1.307284e+00
1.320017e+00
1.400811e+00
1.267973e+00
1.551733e+00
1.829911e+00
1.247383e+00
6.438067e-01
2.514801e-01
7.546721e-02
2.335102e-02
3.452330e-03
1.137676e-03
4.659515e-04
1.183982e+00
1.269703e+00
1.231336e+00
1.185474e+00
1.263976e+00
1.232388e+00
1.209505e+00
1.245928e+00
1.191965e+00
1.229905e+00
1.223742e+00
1.209612e+00
1.278122e+00
1.199295e+00
1.307200e+00
1.239625e+00
1.328973e+00
1.343420e+00
1.419268e+00
1.278758e+00
1.557575e+00
1.832098e+00
1.247974e+00
6.444217e-01
2.512795e-01
7.549685e-02
2.344375e-02
3.087050e-03
1.222623e-03
5.211914e-04
1.181019e+00
1.265598e+00
1.228385e+00
1.182652e+00
1.262494e+00
1.228905e+00
1.203699e+00
1.241988e+00
1.193712e+00
1.237415e+00
1.233447e+00
1.216641e+00
1.281975e+00
1.205770e+00
1.320999e+00
1.259698e+00
1.351295e+00
1.362118e+00
1.430971e+00
1.285396e+00
1.560575e+00
1.832800e+00
1.248607e+00
6.444490e-01
2.511548e-01
7.584909e-02
2.327036e-02
3.219305e-03
1.308303e-03
3.642726e-04
1.179136e+00
1.262268e+00
1.226708e+00
1.183266e+00
1.256497e+00
1.219017e+00
1.198661e+00
1.244370e+00
1.200390e+00
1.244075e+00
1.237260e+00
1.219178e+00
1.288339e+00
1.219009e+00
1.339816e+00
1.280564e+00
1.369258e+00
1.373939e+00
1.437879e+00
1.288918e+00
1.561595e+00
1.833347e+00
1.248916e+00
6.441910e-01
2.512892e-01
7.589370e-02
2.303954e-02
3.481685e-03
1.288491e-03
1.652994e-04
1.179488e+00
1.261897e+00
1.225281e+00
1.173110e+00
1.244914e+00
1.214597e+00
1.200537e+00
1.248002e+00
1.202864e+00
1.245029e+00
1.239424e+00
1.226299e+00
1.301661e+00
1.236855e+00
1.359039e+00
1.297043e+00
1.380384e+00
1.380668e+00
1.441506e+00
1.290109e+00
1.562126e+00
1.833746e+00
1.248759e+00
6.442560e-01
2.514269e-01
7.570861e-02
2.306785e-02
3.494137e-03
1.199453e-03
1.668704e-04
1.177370e+00
1.259317e+00
1.217266e+00
1.165546e+00
1.241959e+00
1.214433e+00
1.200504e+00
1.247379e+00
1.202838e+00
1.248273e+00
1.247963e+00
1.239906e+00
1.318435e+00
1.254024e+00
1.373370e+00
1.306809e+00
1.386495e+00
1.384126e+00
1.442741e+00
1.290588e+00
1.562573e+00
1.833639e+00
1.248670e+00
6.445036e-01
2.513006e-01
7.565802e-02
2.329121e-02
3.338810e-03
1.209241e-03
3.255050e-04
1.179215e+00
1.256979e+00
1.211946e+00
1.159765e+00
1.237586e+00
1.211486e+00
1.199131e+00
1.248845e+00
1.208685e+00
1.258697e+00
1.261759e+00
1.255231e+00
1.333025e+00
1.265651e+00
1.381274e+00
1.311908e+00
1.389430e+00
1.385211e+00
1.443205e+00
1.291045e+00
1.562547e+00
1.833516e+00
1.248851e+00
6.444612e-01
2.511621e-01
7.578157e-02
2.331612e-02
3.226291e-03
1.280022e-03
3.960028e-04
1.175027e+00
1.248513e+00
1.202866e+00
1.154729e+00
1.236434e+00
1.213439e+00
1.204541e+00
1.257798e+00
1.220265e+00
1.271659e+00
1.274738e+00
1.266653e+00
1.341714e+00
1.271620e+00
1.385272e+00
1.314184e+00
1.390227e+00
1.385581e+00
1.443600e+00
1.291008e+00
1.562414e+00
1.833735e+00
1.248867e+00
6.442768e-01
2.512927e-01
7.581456e-02
2.315930e-02
3.325890e-03
1.294578e-03
3.002339e-04
1.173543e+00
1.245939e+00
1.204624e+00
1.159924e+00
1.243759e+00
1.222547e+00
1.214774e+00
1.268377e+00
1.230654e+00
1.281154e+00
1.282543e+00
1.272473e+00
1.345875e+00
1.274473e+00
1.386802e+00
1.314713e+00
1.390610e+00
1.385957e+00
1.443534e+00
1.290848e+00
1.562571e+00
1.833773e+00
1.248705e+00
6.443573e-01
2.514170e-01
7.568498e-02
2.312540e-02
3.465272e-03
1.228716e-03
2.186479e-04
1.174504e+00
1.250243e+00
1.210990e+00
1.167241e+00
1.251440e+00
1.230146e+00
1.222190e+00
1.275428e+00
1.236789e+00
1.285989e+00
1.286169e+00
1.275131e+00
1.347612e+00
1.275279e+00
1.387090e+00
1.315048e+00
1.390875e+00
1.385852e+00
1.443461e+00
1.291060e+00
1.562590e+00
1.833568e+00
1.248756e+00
6.444769e-01
2.513044e-01
7.567667e-02
2.323015e-02
3.401404e-03
1.191472e-03
2.709495e-04
1.176020e+00
1.253872e+00
1.215792e+00
1.172178e+00
1.256146e+00
1.234598e+00
1.226134e+00
1.278623e+00
1.239357e+00
1.288101e+00
1.287738e+00
1.276010e+00
1.347928e+00
1.275477e+00
1.387411e+00
1.315191e+00
1.390698e+00
1.385790e+00
1.443640e+00
1.291071e+00
1.562454e+00
1.833647e+00
1.248871e+00
6.443455e-01
2.512213e-01
7.581561e-02
2.324754e-02
3.278694e-03
1.258124e-03
3.400531e-04
1.176571e+00
1.255754e+00
1.217962e+00
1.174434e+00
1.258388e+00
1.236551e+00
1.227744e+00
1.279961e+00
1.240328e+00
1.288614e+00
1.287953e+00
1.276210e+00
1.348245e+00
1.275730e+00
1.387349e+00
1.314997e+00
1.390771e+00
1.385989e+00
1.443560e+00
1.290885e+00
1.562535e+00
1.833784e+00
1.248790e+00
6.442922e-01
2.513109e-01
7.579951e-02
2.316866e-02
3.323445e-03
1.313694e-03
3.068449e-04
1.176948e+00
1.256624e+00
1.218913e+00
1.175170e+00
1.258875e+00
1.236992e+00
1.228193e+00
1.280305e+00
1.240558e+00
1.288814e+00
1.288140e+00
1.276337e+00
1.348250e+00
1.275631e+00
1.387330e+00
1.315143e+00
1.390843e+00
1.385849e+00
1.443487e+00
1.291024e+00
1.562588e+00
1.833628e+00
1.248743e+00
6.444454e-01
2.513484e-01
7.567287e-02
2.316872e-02
3.417023e-03
1.257319e-03
2.521136e-04
1.177057e+00
1.256801e+00
1.219082e+00
1.175473e+00
1.259270e+00
1.237260e+00
1.228266e+00
1.280337e+00
1.240673e+00
1.288975e+00
1.288227e+00
1.276260e+00
1.348095e+00
1.275624e+00
1.387491e+00
1.315205e+00
1.390717e+00
1.385792e+00
1.443599e+00
1.291071e+00
1.562492e+00
1.833602e+00
1.248818e+00
6.444318e-01
2.512822e-01
7.571653e-02
2.323623e-02
3.371889e-03
1.183607e-03
2.823561e-04
1.176899e+00
1.256751e+00
1.219064e+00
1.175378e+00
1.259151e+00
1.237274e+00
1.228430e+00
1.280467e+00
1.240609e+00
1.288776e+00
1.288110e+00
1.276379e+00
1.348342e+00
1.275690e+00
1.387274e+00
1.315021e+00
1.390840e+00
1.385999e+00
1.443550e+00
1.290890e+00
1.562510e+00
1.833759e+00
1.248816e+00
6.442992e-01
2.512738e-01
7.581851e-02
2.323467e-02
3.299238e-03
1.211110e-03
3.326333e-04
1.177167e+00
1.256984e+00
1.219265e+00
1.175557e+00
1.259230e+00
1.237184e+00
1.228231e+00
1.280347e+00
1.240697e+00
1.288979e+00
1.288210e+00
1.276285e+00
1.348181e+00
1.275651e+00
1.387392e+00
1.315125e+00
1.390782e+00
1.385870e+00
1.443547e+00
1.291007e+00
1.562551e+00
1.833670e+00
1.248769e+00
6.443729e-01
2.513216e-01
7.575131e-02
2.317370e-02
3.348938e-03
1.296204e-03
3.017225e-04
1.176913e+00
1.256719e+00
1.219010e+00
1.175407e+00
1.259270e+00
1.237374e+00
1.228437e+00
1.280425e+00
1.240612e+00
1.288858e+00
1.288182e+00
1.276309e+00
1.348162e+00
1.275641e+00
1.387467e+00
1.315186e+00
1.390710e+00
1.385769e+00
1.443583e+00
1.291107e+00
1.562540e+00
1.833586e+00
1.248774e+00
6.444501e-01
2.513256e-01
7.567994e-02
2.315900e-02
3.411266e-03
1.311791e-03
2.427762e-04
1.177084e+00
1.256975e+00
1.219295e+00
1.175529e+00
1.259152e+00
1.237162e+00
1.228304e+00
1.280424e+00
1.240664e+00
1.288840e+00
1.288116e+00
1.276361e+00
1.348338e+00
1.275677e+00
1.387255e+00
1.315040e+00
1.390872e+00
1.385977e+00
1.443506e+00
1.290899e+00
1.562544e+00
1.833751e+00
1.248806e+00
6.443339e-01
2.512813e-01
7.575601e-02
2.321583e-02
3.370027e-03
1.227239e-03
2.647869e-04
1.177058e+00
1.256790e+00
1.219040e+00
1.175469e+00
1.259332e+00
1.237348e+00
1.228336e+00
1.280367e+00
1.240685e+00
1.289000e+00
1.288238e+00
1.276241e+00
1.348099e+00
1.275651e+00
1.387457e+00
1.315135e+00
1.390753e+00
1.385896e+00
1.443576e+00
1.290952e+00
1.562499e+00
1.833721e+00
1.248831e+00
6.443361e-01
2.512586e-01
7.578167e-02
2.325934e-02
3.323290e-03
1.162668e-03
3.378914e-04
1.176910e+00
1.256863e+00
1.219209e+00
1.175431e+00
1.259107e+00
1.237231e+00
1.228419e+00
1.280461e+00
1.240592e+00
1.288769e+00
1.288142e+00
1.276398e+00
1.348268e+00
1.275623e+00
1.387386e+00
1.315176e+00
1.390746e+00
1.385778e+00
1.443588e+00
1.291122e+00
1.562520e+00
1.833548e+00
1.248779e+00
6.444683e-01
2.513181e-01
7.570930e-02
2.320400e-02
3.341463e-03
1.235567e-03
3.428669e-04
1.177164e+00
1.256836e+00
1.219091e+00
1.175532e+00
1.259310e+00
1.237210e+00
1.228198e+00
1.280339e+00
1.240727e+00
1.288980e+00
1.288153e+00
1.276267e+00
1.348275e+00
1.275719e+00
1.387293e+00
1.315022e+00
1.390858e+00
1.385972e+00
1.443499e+00
1.290937e+00
1.562577e+00
1.833692e+00
1.248739e+00
6.443754e-01
2.513631e-01
7.575517e-02
2.312891e-02
3.344544e-03
1.346825e-03
2.690430e-04
1.176793e+00
1.256713e+00
1.218993e+00
1.175189e+00
1.258975e+00
1.237227e+00
1.228400e+00
1.280357e+00
1.240508e+00
1.288818e+00
1.288225e+00
1.276319e+00
1.348095e+00
1.275610e+00
1.387491e+00
1.315167e+00
1.390716e+00
1.385881e+00
1.443592e+00
1.290922e+00
1.562492e+00
1.833789e+00
1.248835e+00
6.442609e-01
2.512778e-01
7.582675e-02
2.318352e-02
3.341745e-03
1.290968e-03
2.290670e-04
1.176924e+00
1.256398e+00
1.218719e+00
1.175211e+00
1.258904e+00
1.236737e+00
1.227834e+00
1.280113e+00
1.240497e+00
1.288682e+00
1.287952e+00
1.276281e+00
1.348312e+00
1.275639e+00
1.387302e+00
1.315155e+00
1.390800e+00
1.385777e+00
1.443554e+00
1.291112e+00
1.562521e+00
1.833591e+00
1.248825e+00
6.444283e-01
2.512480e-01
7.569518e-02
2.326959e-02
3.413330e-03
1.144680e-03
2.793484e-04
1.176414e+00
1.255802e+00
1.217773e+00
1.173876e+00
1.257789e+00
1.236169e+00
1.227342e+00
1.279375e+00
1.239799e+00
1.288379e+00
1.287845e+00
1.275967e+00
1.347973e+00
1.275625e+00
1.387334e+00
1.314994e+00
1.390819e+00
1.385991e+00
1.443504e+00
1.290955e+00
1.562608e+00
1.833626e+00
1.248697e+00
6.444897e-01
2.513657e-01
7.561088e-02
2.320692e-02
3.437806e-03
1.193682e-03
3.385741e-04
1.176051e+00
1.254537e+00
1.216590e+00
1.172924e+00
1.256358e+00
1.234080e+00
1.225327e+00
1.277782e+00
1.238303e+00
1.286822e+00
1.286658e+00
1.275406e+00
1.347586e+00
1.275202e+00
1.387259e+00
1.315131e+00
1.390687e+00
1.385857e+00
1.443624e+00
1.290928e+00
1.562466e+00
1.833755e+00
1.248816e+00
6.443174e-01
2.513131e-01
7.579324e-02
2.315839e-02
3.300419e-03
1.361579e-03
3.147365e-04
1.176044e+00
1.254135e+00
1.214974e+00
1.170617e+00
1.254312e+00
1.232197e+00
1.222692e+00
1.274393e+00
1.234969e+00
1.283939e+00
1.284007e+00
1.273137e+00
1.346223e+00
1.274487e+00
1.386607e+00
1.314767e+00
1.390700e+00
1.385733e+00
1.443503e+00
1.291110e+00
1.562484e+00
1.833608e+00
1.248928e+00
6.443402e-01
2.511458e-01
7.588046e-02
2.327032e-02
3.232596e-03
1.290705e-03
2.447944e-04
1.176919e+00
1.255665e+00
1.216769e+00
1.171934e+00
1.254163e+00
1.230740e+00
1.220644e+00
1.271352e+00
1.230329e+00
1.278287e+00
1.278579e+00
1.268385e+00
1.342186e+00
1.271729e+00
1.385165e+00
1.313846e+00
1.390198e+00
1.385758e+00
1.443439e+00
1.290924e+00
1.562609e+00
1.833661e+00
1.248736e+00
6.443977e-01
2.513004e-01
7.574250e-02
2.325080e-02
3.380728e-03
1.096482e-03
2.559557e-04
1.177030e+00
1.257096e+00
1.218633e+00
1.174884e+00
1.258963e+00
1.235700e+00
1.223452e+00
1.271461e+00
1.227762e+00
1.272664e+00
1.270324e+00
1.259464e+00
1.334318e+00
1.265362e+00
1.380762e+00
1.311515e+00
1.388909e+00
1.385031e+00
1.443338e+00
1.290813e+00
1.562446e+00
1.833823e+00
1.248701e+00
6.442578e-01
2.515146e-01
7.572470e-02
2.303697e-02
3.442713e-03
1.204948e-03
3.695922e-04
1.175859e+00
1.255953e+00
1.220251e+00
1.177413e+00
1.262068e+00
1.241646e+00
1.232447e+00
1.280141e+00
1.232747e+00
1.272486e+00
1.264546e+00
1.248634e+00
1.321171e+00
1.253274e+00
1.371212e+00
1.304994e+00
1.385436e+00
1.383292e+00
1.442426e+00
1.290694e+00
1.562409e+00
1.833595e+00
1.248798e+00
6.443828e-01
2.513592e-01
7.572890e-02
2.308399e-02
3.329226e-03
1.443182e-03
4.044994e-04
1.173935e+00
1.251385e+00
1.217506e+00
1.180241e+00
1.268707e+00
1.248686e+00
1.240301e+00
1.291153e+00
1.245659e+00
1.282543e+00
1.267546e+00
1.242880e+00
1.307293e+00
1.235026e+00
1.353972e+00
1.291727e+00
1.376746e+00
1.378804e+00
1.440349e+00
1.289734e+00
1.562256e+00
1.833416e+00
1.248690e+00
6.446461e-01
2.511852e-01
7.556462e-02
2.337403e-02
3.354171e-03
1.324964e-03
2.279531e-04
1.172210e+00
1.246965e+00
1.213369e+00
1.180286e+00
1.275920e+00
1.262610e+00
1.255727e+00
1.304302e+00
1.258556e+00
1.297441e+00
1.281119e+00
1.248594e+00
1.301049e+00
1.217197e+00
1.329737e+00
1.268793e+00
1.359669e+00
1.368164e+00
1.435129e+00
1.287501e+00
1.561198e+00
1.833274e+00
1.248741e+00
6.444326e-01
2.511699e-01
7.566896e-02
2.337084e-02
3.418755e-03
1.073064e-03
8.233190e-05
1.167105e+00
1.240047e+00
1.210357e+00
1.183977e+00
1.286631e+00
1.279514e+00
1.279123e+00
1.329744e+00
1.278932e+00
1.312476e+00
1.296024e+00
1.263396e+00
1.307896e+00
1.208911e+00
1.306242e+00
1.237412e+00
1.330834e+00
1.347775e+00
1.423291e+00
1.282032e+00
1.558944e+00
1.832498e+00
1.248722e+00
6.440606e-01
2.511376e-01
7.606361e-02
2.312900e-02
3.277120e-03
1.192455e-03
2.716819e-04
1.156632e+00
1.228816e+00
1.211816e+00
1.196415e+00
1.307744e+00
1.306042e+00
1.307672e+00
1.361749e+00
1.312331e+00
1.338502e+00
1.311704e+00
1.276077e+00
1.321501e+00
1.214617e+00
1.293401e+00
1.205950e+00
1.291427e+00
1.313760e+00
1.400920e+00
1.269956e+00
1.553880e+00
1.830741e+00
1.247867e+00
6.439081e-01
2.513588e-01
7.599479e-02
2.300774e-02
3.264637e-03
1.348987e-03
5.128792e-04
1.157931e+00
1.253052e+00
1.247074e+00
1.232182e+00
1.341815e+00
1.342227e+00
1.345082e+00
1.396510e+00
1.347712e+00
1.375061e+00
1.339348e+00
1.289244e+00
1.329790e+00
1.225255e+00
1.295481e+00
1.185173e+00
1.249569e+00
1.266345e+00
1.363447e+00
1.247457e+00
1.543057e+00
1.826563e+00
1.246152e+00
6.436657e-01
2.515759e-01
7.543405e-02
2.304737e-02
3.550975e-03
1.161448e-03
3.988989e-04
1.231991e+00
1.360851e+00
1.334350e+00
1.286238e+00
1.364336e+00
1.349945e+00
1.359577e+00
1.421622e+00
1.374718e+00
1.404859e+00
1.372978e+00
1.313315e+00
1.336469e+00
1.227485e+00
1.302174e+00
1.180639e+00
1.216703e+00
1.212258e+00
1.309573e+00
1.209749e+00
1.522906e+00
1.817479e+00
1.243015e+00
6.430628e-01
2.509940e-01
7.519355e-02
2.340652e-02
3.529515e-03
1.117718e-03
1.751147e-04
1.288179e+00
1.429635e+00
1.387324e+00
1.320109e+00
1.366351e+00
1.306154e+00
1.289939e+00
1.370099e+00
1.357708e+00
1.407013e+00
1.387967e+00
1.338682e+00
1.351791e+00
1.224116e+00
1.298127e+00
1.183102e+00
1.201073e+00
1.162827e+00
1.243619e+00
1.153865e+00
1.488470e+00
1.800883e+00
1.236935e+00
6.412535e-01
2.498772e-01
7.543397e-02
2.370044e-02
2.950458e-03
1.410690e-03
1.728643e-04
1.171485e+00
1.339287e+00
1.334151e+00
1.288134e+00
1.352941e+00
1.283469e+00
1.206324e+00
1.228261e+00
1.226239e+00
1.330921e+00
1.352644e+00
1.333487e+00
1.365285e+00
1.226476e+00
1.282644e+00
1.175355e+00
1.197342e+00
1.129631e+00
1.175019e+00
1.080543e+00
1.435793e+00
1.773071e+00
1.225991e+00
6.367865e-01
2.486564e-01
7.569567e-02
2.309446e-02
2.915855e-03
1.670446e-03
1.462814e-04
1.215320e+00
1.293027e+00
1.277055e+00
1.229770e+00
1.290765e+00
1.252973e+00
1.196553e+00
1.155251e+00
1.049215e+00
1.136650e+00
1.216249e+00
1.257231e+00
1.337991e+00
1.227258e+00
1.267430e+00
1.150281e+00
1.188933e+00
1.114123e+00
1.116905e+00
9.946152e-01
1.363641e+00
1.730147e+00
1.206706e+00
6.290009e-01
2.468405e-01
7.548204e-02
2.213533e-02
3.774511e-03
1.420124e-03
-8.107579e-05
1.182230e+00
1.306300e+00
1.250736e+00
1.194000e+00
1.232316e+00
1.161428e+00
1.127390e+00
1.153617e+00
1.003785e+00
9.597197e-01
9.838787e-01
1.071683e+00
1.221112e+00
1.182029e+00
1.252424e+00
1.115130e+00
1.162539e+00
1.104222e+00
1.078451e+00
9.065470e-01
1.272836e+00
1.669135e+00
1.175370e+00
6.171922e-01
2.437333e-01
7.389616e-02
2.201398e-02
4.129861e-03
6.815217e-04
2.371459e-04
1.176221e+00
1.265179e+00
1.218360e+00
1.141094e+00
1.183700e+00
1.109814e+00
1.014929e+00
1.036322e+00
9.871964e-01
9.362745e-01
8.252513e-01
8.265490e-01
9.975799e-01
1.029385e+00
1.196198e+00
1.073794e+00
1.117247e+00
1.082152e+00
1.058246e+00
8.291983e-01
1.167187e+00
1.588054e+00
1.129959e+00
5.994571e-01
2.378912e-01
7.107471e-02
2.262572e-02
3.629798e-03
1.843287e-04
1.296607e-03
1.209131e+00
1.247732e+00
1.188734e+00
1.084916e+00
1.105341e+00
1.017232e+00
9.756512e-01
9.189362e-01
8.404756e-01
8.876559e-01
8.126127e-01
6.916401e-01
7.666188e-01
7.671860e-01
1.030346e+00
9.926874e-01
1.054160e+00
1.035615e+00
1.042398e+00
7.733542e-01
1.052445e+00
1.487992e+00
1.068458e+00
5.736328e-01
2.276272e-01
6.847582e-02
2.253602e-02
2.794253e-03
3.876002e-04
1.814432e-03
1.170096e+00
1.233699e+00
1.146698e+00
1.000868e+00
1.053428e+00
8.982322e-01
8.475681e-01
8.656984e-01
7.416268e-01
7.293538e-01
7.395108e-01
6.599359e-01
6.807536e-01
5.416245e-01
7.594750e-01
8.122466e-01
9.420228e-01
9.581766e-01
1.007292e+00
7.417617e-01
9.366934e-01
1.371083e+00
9.899197e-01
5.370883e-01
2.134534e-01
6.522935e-02
2.119147e-02
1.899090e-03
1.605105e-03
5.461714e-04
1.170826e+00
1.201382e+00
1.094511e+00
9.112982e-01
9.093239e-01
8.302114e-01
7.173135e-01
7.101048e-01
6.666341e-01
6.411119e-01
6.100892e-01
5.461458e-01
6.401159e-01
4.895507e-01
5.490223e-01
5.591120e-01
7.321940e-01
8.214615e-01
9.268518e-01
7.174255e-01
8.317371e-01
1.236051e+00
8.967013e-01
4.870075e-01
1.966718e-01
5.875028e-02
1.998149e-02
1.051630e-03
2.932755e-03
-1.538698e-03
1.143535e+00
1.190155e+00
9.535852e-01
8.077152e-01
7.718570e-01
6.460673e-01
6.237264e-01
5.923192e-01
5.262670e-01
5.264446e-01
5.431120e-01
4.486635e-01
4.975721e-01
4.473494e-01
4.951244e-01
4.026385e-01
4.848166e-01
5.925008e-01
7.656547e-01
6.602766e-01
7.390128e-01
1.081588e+00
7.896743e-01
4.236287e-01
1.756878e-01
4.946927e-02
1.897544e-02
2.301046e-04
3.072316e-03
-2.251465e-03
1.182233e+00
1.028403e+00
8.172771e-01
6.213812e-01
6.023159e-01
4.951640e-01
4.835568e-01
4.395214e-01
4.373852e-01
4.232903e-01
4.002168e-01
3.981579e-01
4.121418e-01
3.304300e-01
4.085297e-01
3.639925e-01
3.720911e-01
3.630063e-01
5.122323e-01
5.192079e-01
6.280187e-01
9.033943e-01
6.630928e-01
3.497196e-01
1.473780e-01
3.989121e-02
1.633317e-02
1.271716e-05
2.211535e-03
-1.218845e-03
1.041054e+00
7.846352e-01
5.552654e-01
3.840291e-01
3.871534e-01
3.415854e-01
3.256671e-01
3.332067e-01
3.121876e-01
3.206663e-01
3.070595e-01
3.189453e-01
2.964075e-01
2.883230e-01
3.206326e-01
2.426476e-01
3.295878e-01
2.959887e-01
2.916583e-01
2.960047e-01
4.488464e-01
6.768414e-01
5.003795e-01
2.631246e-01
1.096217e-01
3.032923e-02
1.158344e-02
4.486648e-04
1.207042e-03
-2.628185e-04
6.664695e-01
2.257556e-01
2.029010e-01
1.256579e-01
1.937627e-01
1.935160e-01
2.018120e-01
2.209087e-01
2.025974e-01
2.455621e-01
1.970527e-01
2.435487e-01
2.253410e-01
1.970917e-01
2.539867e-01
1.872495e-01
2.236728e-01
2.153240e-01
2.311583e-01
1.619525e-01
2.145790e-01
3.633997e-01
2.667644e-01
1.461609e-01
5.880440e-02
1.734131e-02
6.087599e-03
2.471364e-04
8.106025e-04
-3.498668e-04
SCALARS SZZ double 1
LOOKUP_TABLE szz
3.169691e-02
-3.137675e-02
-4.865862e-02
-2.101315e-02
5.698070e-03
-4.994505e-03
1.238436e-02
-6.312317e-05
-3.471431e-03
6.841067e-04
8.628684e-03
-1.801148e-02
6.043031e-03
-6.790463e-03
1.561893e-02
-1.474366e-03
7.238279e-03
-1.316923e-03
1.957720e-02
-3.318678e-02
-1.452305e-03
7.944003e-02
6.204398e-02
3.745709e-02
1.680132e-02
2.661298e-03
3.082981e-03
-4.049194e-04
-1.287056e-04
1.020715e-03
-1.558462e-02
9.202169e-03
1.742070e-03
-2.299207e-02
8.949000e-03
2.499716e-02
-7.470767e-03
1.540778e-02
-4.195254e-03
3.996178e-03
5.063965e-03
-1.219079e-02
-6.706947e-03
4.083147e-04
2.904126e-02
-4.344301e-04
1.718542e-02
1.904750e-02
-1.317986e-03
-5.339452e-02
7.098578e-02
2.407269e-01
1.907714e-01
1.047676e-01
4.445961e-02
1.104793e-02
5.212679e-03
4.937229e-04
-4.509559e-04
1.293507e-03
2.519979e-03
2.971113e-02
-8.328767e-04
-5.304474e-03
1.578310e-02
1.008441e-02
1.411055e-02
5.970132e-03
7.824518e-03
7.789922e-03
2.408111e-03
-1.016318e-02
9.470818e-03
-4.978190e-03
2.703699e-02
1.726077e-02
2.495793e-02
-1.858853e-02
8.309952e-03
5.199272e-02
2.116151e-01
3.506082e-01
2.467064e-01
1.305684e-01
5.186964e-02
1.366669e-02
5.889150e-03
5.438311e-05
4.576654e-04
2.958902e-04
1.403154e-02
1.720747e-02
-1.681412e-02
-1.880402e-02
2.766799e-02
3.442378e-02
-5.265972e-03
2.453289e-02
9.990547e-03
6.335157e-03
1.269444e-02
3.466167e-03
7.892176e-04
6.216041e-03
4.239111e-02
-4.426869e-04
-6.888332e-03
1.604005e-02
1.307848e-01
1.833530e-01
2.996517e-01
3.926590e-01
2.680419e-01
1.402854e-01
5.421205e-02
1.632429e-02
5.034796e-03
4.841551e-04
1.083503e-03
-1.296084e-03
1.061481e-02
1.259508e-02
1.116295e-02
7.222705e-03
4.114259e-02
1.371784e-02
1.270659e-02
2.522676e-02
1.415172e-02
2.224992e-02
1.468283e-02
-7.508743e-05
2.466142e-02
1.717492e-02
5.334167e-03
-1.966346e-02
5.181462e-02
1.466285e-01
2.510972e-01
2.502578e-01
3.300808e-01
4.066945e-01
2.798606e-01
1.461739e-01
5.586537e-02
1.847994e-02
4.110177e-03
1.346113e-03
6.335798e-04
-1.781489e-03
-3.906489e-03
2.425520e-02
2.546795e-03
1.080821e-02
3.196675e-02
2.053451e-02
1.549731e-02
3.683932e-02
2.738001e-02
1.723047e-02
2.400639e-02
2.354090e-02
2.926089e-02
-2.710315e-02
2.220511e-03
6.464324e-02
1.785768e-01
2.535793e-01
3.024466e-01
2.691034e-01
3.397066e-01
4.156015e-01
2.892270e-01
1.501932e-01
5.850051e-02
1.855002e-02
4.679029e-03
1.370542e-03
3.985757e-04
1.757870e-04
-2.452506e-03
1.484705e-02
2.670007e-02
1.658872e-02
3.038361e-02
2.450873e-02
3.368398e-02
4.897036e-02
1.606042e-02
3.852341e-02
4.683106e-02
1.251695e-02
-8.468188e-03
-1.168923e-02
1.056570e-01
1.863049e-01
2.653144e-01
2.952207e-01
3.130772e-01
2.735344e-01
3.456455e-01
4.255598e-01
2.965072e-01
1.537911e-01
6.085736e-02
1.803701e-02
5.928836e-03
4.046110e-04
-9.291906e-05
1.388398e-03
-6.420982e-03
2.978517e-02
2.174318e-02
6.549552e-03
3.750304e-02
4.496885e-02
4.159129e-02
4.107003e-02
4.173875e-02
5.959595e-02
2.408646e-02
-1.431857e-02
2.814032e-02
9.956657e-02
2.208208e-01
2.545509e-01
2.955312e-01
3.031511e-01
3.136313e-01
2.761968e-01
3.533028e-01
4.358528e-01
3.023902e-01
1.572068e-01
6.207827e-02
1.802701e-02
6.446811e-03
8.585112e-04
-5.249674e-04
8.540776e-04
-9.660202e-03
1.703280e-02
1.495432e-02
2.154318e-02
5.573179e-02
4.919562e-02
4.192639e-02
6.571014e-02
5.494296e-02
3.570973e-02
1.245355e-02
3.899813e-02
1.393422e-01
2.024803e-01
2.755393e-01
2.738810e-01
3.017925e-01
3.027189e-01
3.137618e-01
2.810457e-01
3.631099e-01
4.454025e-01
3.074969e-01
1.596548e-01
6.314149e-02
1.828707e-02
5.572423e-03
1.571384e-03
2.034653e-05
5.680861e-04
-1.460623e-02
2.136468e-02
3.554692e-02
3.696585e-02
5.990329e-02
5.640328e-02
6.387817e-02
7.252285e-02
4.041162e-02
4.336926e-02
7.523959e-02
1.416668e-01
2.265828e-01
2.452777e-01
2.877802e-01
2.777515e-01
3.028744e-01
3.010502e-01
3.164957e-01
2.893547e-01
3.738322e-01
4.539651e-01
3.115314e-01
1.613374e-01
6.366470e-02
1.918249e-02
5.303779e-03
7.820117e-04
8.505084e-05
-2.639390e-04
-1.191107e-02
3.464743e-02
4.144191e-02
4.136783e-02
7.247055e-02
7.616357e-02
7.059545e-02
7.196221e-02
6.372118e-02
1.068608e-01
1.622168e-01
2.114142e-01
2.587083e-01
2.532451e-01
2.899706e-01
2.804659e-01
3.021084e-01
3.012202e-01
3.235010e-01
3.003553e-01
3.847958e-01
4.605522e-01
3.147796e-01
1.628426e-01
6.299804e-02
1.988312e-02
6.012984e-03
6.494606e-04
8.205565e-04
-2.545738e-04
-3.932071e-02
3.807677e-02
5.934691e-02
6.497425e-02
9.370653e-02
8.729306e-02
8.250923e-02
1.030765e-01
1.201867e-01
1.753293e-01
2.144875e-01
2.345056e-01
2.639803e-01
2.553995e-01
2.940293e-01
2.817393e-01
3.015568e-01
3.063665e-01
3.342955e-01
3.131766e-01
3.945163e-01
4.650234e-01
3.174637e-01
1.638181e-01
6.283373e-02
1.962535e-02
5.733626e-03
7.878023e-04
8.996676e-04
-3.405279e-05
4.902617e-03
7.302581e-02
8.091471e-02
7.811258e-02
1.031108e-01
1.031733e-01
1.107281e-01
1.456208e-01
1.692866e-01
2.120915e-01
2.303857e-01
2.385959e-01
2.673366e-01
2.615150e-01
2.974432e-01
2.816452e-01
3.056899e-01
3.168787e-01
3.481329e-01
3.258068e-01
4.015871e-01
4.686659e-01
3.187976e-01
1.640513e-01
6.386448e-02
1.916408e-02
5.646823e-03
8.346856e-04
-1.391985e-04
-2.835954e-04
6.388471e-02
8.152519e-02
8.265778e-02
8.420589e-02
1.179959e-01
1.228233e-01
1.388242e-01
1.805579e-01
1.964477e-01
2.243751e-01
2.352496e-01
2.446245e-01
2.761032e-01
2.671222e-01
2.984109e-01
2.855667e-01
3.162937e-01
3.318328e-01
3.631043e-01
3.355340e-01
4.066901e-01
4.714997e-01
3.189393e-01
1.642501e-01
6.435794e-02
1.885176e-02
6.264882e-03
1.122279e-03
1.072405e-04
3.394654e-04
1.120075e-01
1.226808e-01
1.151920e-01
1.113196e-01
1.376969e-01
1.467833e-01
1.695333e-01
2.040567e-01
2.077273e-01
2.316401e-01
2.453503e-01
2.565537e-01
2.835666e-01
2.694092e-01
3.031361e-01
2.969228e-01
3.325978e-01
3.489928e-01
3.754982e-01
3.422773e-01
4.103989e-01
4.726702e-01
3.193251e-01
1.645264e-01
6.395195e-02
1.898893e-02
6.096906e-03
7.174778e-04
4.948130e-04
4.252137e-04
1.467979e-01
1.525780e-01
1.397633e-01
1.291631e-01
1.614146e-01
1.756469e-01
1.905258e-01
2.166701e-01
2.204220e-01
2.474746e-01
2.603030e-01
2.650623e-01
2.871368e-01
2.758728e-01
3.163054e-01
3.151596e-01
3.519171e-01
3.637466e-01
3.840493e-01
3.471197e-01
4.121447e-01
4.729849e-01
3.200958e-01
1.643345e-01
6.382736e-02
1.952675e-02
5.630296e-03
6.077187e-04
3.714898e-04
-5.871860e-05
1.655929e-01
1.795536e-01
1.668289e-01
1.605784e-01
1.924259e-01
1.998137e-01
2.112958e-01
2.384800e-01
2.415600e-01
2.633392e-01
2.685594e-01
2.701619e-01
2.965036e-01
2.919847e-01
3.371425e-01
3.366365e-01
3.686077e-01
3.738523e-01
3.898607e-01
3.497139e-01
4.126909e-01
4.735019e-01
3.202346e-01
1.640901e-01
6.406028e-02
1.953903e-02
5.652160e-03
1.084479e-03
2.922319e-04
-4.246313e-05
1.912990e-01
2.052920e-01
1.935194e-01
1.868300e-01
2.197780e-01
2.282191e-01
2.376108e-01
2.591949e-01
2.550103e-01
2.711863e-01
2.768075e-01
2.843308e-01
3.169916e-01
3.161084e-01
3.606729e-01
3.546315e-01
3.797651e-01
3.803878e-01
3.929194e-01
3.505315e-01
4.133538e-01
4.737241e-01
3.199331e-01
1.643923e-01
6.400356e-02
1.915800e-02
5.903643e-03
1.025957e-03
1.604379e-04
5.243443e-05
2.073936e-01
2.241001e-01
2.185917e-01
2.201074e-01
2.521923e-01
2.529817e-01
2.545389e-01
2.706701e-01
2.650763e-01
2.852335e-01
2.974315e-01
3.099389e-01
3.443943e-01
3.410856e-01
3.791689e-01
3.662550e-01
3.867037e-01
3.837439e-01
3.938806e-01
3.511304e-01
4.137293e-01
4.734577e-01
3.200170e-01
1.646641e-01
6.376252e-02
1.919018e-02
6.041158e-03
7.034855e-04
2.971455e-04
1.303516e-04
2.335771e-01
2.550058e-01
2.526089e-01
2.468499e-01
2.698407e-01
2.662288e-01
2.676147e-01
2.873562e-01
2.880358e-01
3.136048e-01
3.280785e-01
3.395259e-01
3.692225e-01
3.586379e-01
3.902838e-01
3.730216e-01
3.900114e-01
3.848436e-01
3.945879e-01
3.515199e-01
4.134988e-01
4.734970e-01
3.201893e-01
1.644418e-01
6.382664e-02
1.939093e-02
5.902945e-03
7.272107e-04
4.774390e-04
1.477846e-04
2.493466e-01
2.734593e-01
2.697672e-01
2.633346e-01
2.889622e-01
2.898405e-01
2.966863e-01
3.208958e-01
3.229745e-01
3.469462e-01
3.573233e-01
3.622371e-01
3.847047e-01
3.685651e-01
3.962872e-01
3.757871e-01
3.909290e-01
3.855162e-01
3.949915e-01
3.513467e-01
4.135392e-01
4.737786e-01
3.199964e-01
1.642892e-01
6.406012e-02
1.928474e-02
5.771082e-03
9.526113e-04
3.271032e-04
2.884045e-05
2.862983e-01
3.127791e-01
3.087000e-01
3.024272e-01
3.289128e-01
3.303212e-01
3.356872e-01
3.562907e-01
3.535622e-01
3.716279e-01
3.753268e-01
3.744373e-01
3.928484e-01
3.734878e-01
3.984907e-01
3.766654e-01
3.916102e-01
3.857626e-01
3.947222e-01
3.513414e-01
4.137777e-01
4.736817e-01
3.199242e-01
1.644734e-01
6.401661e-02
1.913996e-02
5.869307e-03
1.014816e-03
1.798462e-04
1.374236e-05
3.371057e-01
3.593341e-01
3.507996e-01
3.414290e-01
3.647421e-01
3.621382e-01
3.632010e-01
3.792982e-01
3.714817e-01
3.845120e-01
3.842679e-01
3.803431e-01
3.960164e-01
3.747316e-01
3.992057e-01
3.773788e-01
3.918529e-01
3.855939e-01
3.948016e-01
3.515272e-01
4.135704e-01
4.735140e-01
3.201427e-01
1.645142e-01
6.385793e-02
1.926998e-02
5.926940e-03
8.401638e-04
2.744254e-04
1.015101e-04
3.658072e-01
3.857191e-01
3.755714e-01
3.642743e-01
3.851875e-01
3.798563e-01
3.776084e-01
3.901128e-01
3.793159e-01
3.901580e-01
3.879139e-01
3.821645e-01
3.968675e-01
3.754142e-01
3.996311e-01
3.772575e-01
3.916304e-01
3.857884e-01
3.950567e-01
3.514176e-01
4.134711e-01
4.736484e-01
3.201085e-01
1.643356e-01
6.393140e-02
1.942218e-02
5.835553e-03
7.426274e-04
4.024756e-04
1.178206e-04
3.799419e-01
3.984309e-01
3.872440e-01
3.748542e-01
3.943482e-01
3.872366e-01
3.833300e-01
3.944795e-01
3.822810e-01
3.916581e-01
3.885175e-01
3.827147e-01
3.975279e-01
3.757229e-01
3.994899e-01
3.771620e-01
3.917947e-01
3.858152e-01
3.948207e-01
3.513903e-01
4.137350e-01
4.737001e-01
3.199330e-01
1.643523e-01
6.400507e-02
1.930908e-02
5.833262e-03
8.733660e-04
3.608740e-04
5.472478e-05
3.841544e-01
4.023273e-01
3.909387e-01
3.780319e-01
3.969260e-01
3.893433e-01
3.849420e-01
3.955182e-01
3.829725e-01
3.923775e-01
3.892367e-01
3.830051e-01
3.972764e-01
3.754401e-01
3.996305e-01
3.774869e-01
3.918073e-01
3.855847e-01
3.947846e-01
3.515141e-01
4.136729e-01
4.735833e-01
3.200681e-01
1.645114e-01
6.388838e-02
1.916005e-02
5.922065e-03
9.667173e-04
2.586990e-04
3.287223e-05
3.855021e-01
4.035586e-01
3.921085e-01
3.792186e-01
3.980328e-01
3.901650e-01
3.854657e-01
3.959149e-01
3.833001e-01
3.924971e-01
3.891041e-01
3.828703e-01
3.973903e-01
3.756790e-01
3.996594e-01
3.772701e-01
3.916946e-01
3.857713e-01
3.949667e-01
3.513951e-01
4.134827e-01
4.736236e-01
3.201688e-01
1.644716e-01
6.388530e-02
1.925210e-02
5.890509e-03
8.597599e-04
2.670358e-04
9.330571e-05
3.857253e-01
4.037426e-01
3.922322e-01
3.791932e-01
3.979405e-01
3.901869e-01
3.856279e-01
3.960412e-01
3.832406e-01
3.923425e-01
3.890942e-01
3.830702e-01
3.975763e-01
3.756317e-01
3.994733e-01
3.772250e-01
3.918345e-01
3.858362e-01
3.948539e-01
3.513558e-01
4.136292e-01
4.736762e-01
3.199939e-01
1.643642e-01
6.402180e-02
1.937910e-02
5.813795e-03
7.687338e-04
3.157832e-04
1.314673e-04
3.858426e-01
4.039049e-01
3.924704e-01
3.795032e-01
3.981819e-01
3.901931e-01
3.854096e-01
3.958265e-01
3.832710e-01
3.926003e-01
3.892754e-01
3.829353e-01
3.972829e-01
3.755538e-01
3.996981e-01
3.774263e-01
3.917384e-01
3.856198e-01
3.948535e-01
3.515328e-01
4.136821e-01
4.735786e-01
3.199721e-01
1.644203e-01
6.397782e-02
1.930235e-02
5.872018e-03
8.594610e-04
3.079688e-04
7.659719e-05
3.858009e-01
4.037957e-01
3.922556e-01
3.792584e-01
3.980782e-01
3.903567e-01
3.857763e-01
3.961437e-01
3.832887e-01
3.923186e-01
3.889863e-01
3.829202e-01
3.974882e-01
3.756891e-01
3.996205e-01
3.772790e-01
3.917174e-01
3.857298e-01
3.949287e-01
3.514648e-01
4.135768e-01
4.736105e-01
3.201083e-01
1.644521e-01
6.385426e-02
1.921209e-02
5.929578e-03
9.540640e-04
3.239609e-04
1.371633e-05
3.858356e-01
4.039222e-01
3.925122e-01
3.794965e-01
3.981146e-01
3.901236e-01
3.853872e-01
3.958351e-01
3.832488e-01
3.925300e-01
3.892434e-01
3.830306e-01
3.974262e-01
3.755423e-01
3.994965e-01
3.772861e-01
3.918630e-01
3.858276e-01
3.948299e-01
3.513280e-01
4.136211e-01
4.737286e-01
3.200824e-01
1.643736e-01
6.390797e-02
1.927641e-02
5.853640e-03
8.944426e-04
3.728948e-04
4.066788e-05
3.858050e-01
4.037799e-01
3.922389e-01
3.793068e-01
3.981692e-01
3.904082e-01
3.857512e-01
3.960987e-01
3.833295e-01
3.924733e-01
3.891263e-01
3.828913e-01
3.973299e-01
3.756006e-01
3.996844e-01
3.773708e-01
3.917205e-01
3.856729e-01
3.948855e-01
3.514709e-01
4.136243e-01
4.736183e-01
3.200257e-01
1.644244e-01
6.399218e-02
1.930355e-02
5.811729e-03
8.253035e-04
3.202625e-04
1.110820e-04
3.858036e-01
4.039065e-01
3.924655e-01
3.793654e-01
3.979701e-01
3.900797e-01
3.854678e-01
3.959499e-01
3.832713e-01
3.924264e-01
3.891260e-01
3.830277e-01
3.975277e-01
3.756528e-01
3.995611e-01
3.772614e-01
3.917231e-01
3.857124e-01
3.949261e-01
3.515091e-01
4.135823e-01
4.735229e-01
3.200465e-01
1.645260e-01
6.396695e-02
1.923404e-02
5.885317e-03
8.566933e-04
2.102064e-04
1.246987e-04
3.856067e-01
4.035720e-01
3.921052e-01
3.792993e-01
3.981747e-01
3.902925e-01
3.855153e-01
3.958606e-01
3.832121e-01
3.925011e-01
3.892254e-01
3.829913e-01
3.973990e-01
3.755834e-01
3.995665e-01
3.773011e-01
3.918222e-01
3.857859e-01
3.948210e-01
3.513558e-01
4.136346e-01
4.736816e-01
3.200519e-01
1.644102e-01
6.391960e-02
1.928972e-02
5.929234e-03
8.486389e-04
2.372358e-04
8.942270e-05
3.852777e-01
4.033918e-01
3.918283e-01
3.786046e-01
3.972910e-01
3.896570e-01
3.852803e-01
3.958618e-01
3.831761e-01
3.923057e-01
3.889922e-01
3.828676e-01
3.973759e-01
3.756320e-01
3.996966e-01
3.773847e-01
3.917252e-01
3.856670e-01
3.948623e-01
3.514216e-01
4.136200e-01
4.737119e-01
3.200779e-01
1.643065e-01
6.389043e-02
1.939993e-02
5.890854e-03
7.861946e-04
3.724253e-04
6.683878e-05
3.833087e-01
4.014261e-01
3.901912e-01
3.776238e-01
3.965634e-01
3.886768e-01
3.840392e-01
3.946913e-01
3.823843e-01
3.919424e-01
3.888841e-01
3.828639e-01
3.974080e-01
3.755815e-01
3.995231e-01
3.772729e-01
3.917741e-01
3.857341e-01
3.949088e-01
3.514944e-01
4.135872e-01
4.735668e-01
3.200612e-01
1.644365e-01
6.394231e-02
1.929812e-02
5.812720e-03
8.717025e-04
4.277751e-04
4.395869e-05
3.796681e-01
3.979195e-01
3.860827e-01
3.727549e-01
3.918555e-01
3.849344e-01
3.812803e-01
3.925697e-01
3.806534e-01
3.905698e-01
3.878977e-01
3.821814e-01
3.969498e-01
3.753837e-01
3.995197e-01
3.772794e-01
3.917968e-01
3.858189e-01
3.948864e-01
3.513791e-01
4.136111e-01
4.736125e-01
3.199877e-01
1.644986e-01
6.404889e-02
1.914249e-02
5.763111e-03
1.039418e-03
3.591556e-04
8.196492e-06
3.717092e-01
3.905364e-01
3.794187e-01
3.663348e-01
3.845889e-01
3.766363e-01
3.729333e-01
3.852361e-01
3.748377e-01
3.862799e-01
3.849480e-01
3.803636e-01
3.959477e-01
3.748385e-01
3.992749e-01
3.772252e-01
3.916989e-01
3.856701e-01
3.948722e-01
3.514274e-01
4.136226e-01
4.736672e-01
3.200227e-01
1.644280e-01
6.397017e-02
1.918981e-02
5.893267e-03
9.827618e-04
2.192692e-04
3.747015e-05
3.651630e-01
3.831834e-01
3.698528e-01
3.546340e-01
3.720634e-01
3.637176e-01
3.593588e-01
3.714595e-01
3.620640e-01
3.756433e-01
3.769556e-01
3.748982e-01
3.925843e-01
3.729708e-01
3.982202e-01
3.766359e-01
3.915150e-01
3.856446e-01
3.948342e-01
3.514916e-01
4.136604e-01
4.735831e-01
3.200784e-01
1.644493e-01
6.378835e-02
1.931255e-02
6.093270e-03
7.408940e-04
1.310767e-04
1.520781e-04
3.697131e-01
3.868244e-01
3.725692e-01
3.533009e-01
3.637661e-01
3.489721e-01
3.405158e-01
3.504231e-01
3.404256e-01
3.552702e-01
3.596370e-01
3.616609e-01
3.834620e-01
3.673855e-01
3.952998e-01
3.752753e-01
3.908712e-01
3.854245e-01
3.947888e-01
3.514035e-01
4.136144e-01
4.736138e-01
3.200911e-01
1.644222e-01
6.382052e-02
1.940031e-02
5.970839e-03
6.364886e-04
3.022821e-04
2.027841e-04
3.837783e-01
3.982436e-01
3.810325e-01
3.607742e-01
3.694673e-01
3.484491e-01
3.303087e-01
3.308839e-01
3.142368e-01
3.258398e-01
3.306809e-01
3.365859e-01
3.643420e-01
3.544209e-01
3.874480e-01
3.711825e-01
3.890144e-01
3.845341e-01
3.944428e-01
3.513438e-01
4.135276e-01
4.736432e-01
3.201376e-01
1.643318e-01
6.396658e-02
1.941757e-02
5.637086e-03
7.949396e-04
5.790495e-04
8.002254e-05
4.034059e-01
4.179295e-01
3.968002e-01
3.695159e-01
3.723095e-01
3.491926e-01
3.290492e-01
3.232768e-01
2.966544e-01
2.982716e-01
2.962518e-01
3.003149e-01
3.315990e-01
3.290471e-01
3.704118e-01
3.610751e-01
3.838218e-01
3.823330e-01
3.935535e-01
3.509778e-01
4.134708e-01
4.736253e-01
3.200626e-01
1.643927e-01
6.406431e-02
1.921394e-02
5.632395e-03
1.108423e-03
4.445498e-04
-7.245293e-05
4.237170e-01
4.420117e-01
4.185770e-01
3.860290e-01
3.798252e-01
3.451026e-01
3.178064e-01
3.113156e-01
2.840441e-01
2.798412e-01
2.679069e-01
2.626824e-01
2.897625e-01
2.899625e-01
3.397707e-01
3.408254e-01
3.721943e-01
3.765913e-01
3.912813e-01
3.500299e-01
4.130863e-01
4.736427e-01
3.199799e-01
1.644118e-01
6.409223e-02
1.904886e-02
5.921066e-03
1.185841e-03
-5.210181e-06
-4.133704e-05
4.621866e-01
4.826924e-01
4.543753e-01
4.096619e-01
3.922322e-01
3.475954e-01
3.068709e-01
2.882608e-01
2.581022e-01
2.573932e-01
2.457849e-01
2.334680e-01
2.502848e-01
2.443735e-01
2.962395e-01
3.065690e-01
3.500281e-01
3.644171e-01
3.854452e-01
3.478029e-01
4.123454e-01
4.733212e-01
3.199730e-01
1.643734e-01
6.388926e-02
1.929304e-02
6.107387e-03
6.797224e-04
3.364135e-05
2.129764e-04
5.137478e-01
5.429877e-01
5.064069e-01
4.433695e-01
4.035216e-01
3.430198e-01
2.950011e-01
2.676537e-01
2.252827e-01
2.192789e-01
2.129687e-01
2.065445e-01
2.200587e-01
2.037644e-01
2.481451e-01
2.603076e-01
3.141560e-01
3.421276e-01
3.737102e-01
3.424615e-01
4.107128e-01
4.726354e-01
3.195603e-01
1.644889e-01
6.379972e-02
1.949799e-02
6.096995e-03
2.406849e-04
5.822560e-04
4.151926e-04
6.008016e-01
6.264946e-01
5.622232e-01
4.718212e-01
4.069531e-01
3.217460e-01
2.587204e-01
2.311073e-01
1.904721e-01
1.779105e-01
1.662544e-01
1.659579e-01
1.893889e-01
1.729038e-01
2.067469e-01
2.106777e-01
2.671832e-01
3.068890e-01
3.528796e-01
3.323452e-01
4.064626e-01
4.712625e-01
3.189776e-01
1.643771e-01
6.414673e-02
1.925549e-02
5.725838e-03
7.567381e-04
6.098506e-04
6.191779e-05
7.779677e-01
7.374789e-01
6.106772e-01
4.848793e-01
4.034941e-01
3.026624e-01
2.154198e-01
1.690042e-01
1.306732e-01
1.295010e-01
1.186988e-01
1.147243e-01
1.453304e-01
1.413152e-01
1.760751e-01
1.684702e-01
2.169428e-01
2.609688e-01
3.202973e-01
3.149483e-01
3.984012e-01
4.677930e-01
3.184922e-01
1.640164e-01
6.399516e-02
1.914708e-02
5.316554e-03
1.599352e-03
1.764728e-04
-4.650723e-04
1.035857e+00
7.985791e-01
6.052107e-01
4.689722e-01
3.900788e-01
2.986293e-01
2.098467e-01
1.360710e-01
6.503852e-02
5.877794e-02
6.327907e-02
6.503188e-02
9.345554e-02
9.797619e-02
1.464525e-01
1.385032e-01
1.735350e-01
2.107457e-01
2.777333e-01
2.874996e-01
3.846997e-01
4.617465e-01
3.167945e-01
1.637551e-01
6.310542e-02
1.935128e-02
5.804681e-03
1.345359e-03
2.179136e-04
-2.670476e-04
1.228473e+00
8.199850e-01
6.037556e-01
4.613602e-01
3.902196e-01
3.138991e-01
2.471224e-01
1.802065e-01
7.331811e-02
1.238369e-02
-3.348786e-03
1.133735e-02
4.608283e-02
4.884394e-02
1.076658e-01
1.130536e-01
1.433834e-01
1.653345e-01
2.297687e-01
2.506046e-01
3.626309e-01
4.527138e-01
3.131819e-01
1.624864e-01
6.285217e-02
1.912991e-02
6.543302e-03
3.378827e-04
3.966051e-04
3.999759e-04
1.121738e+00
8.667919e-01
6.390128e-01
4.733619e-01
3.949464e-01
3.266850e-01
2.867527e-01
2.640408e-01
1.811974e-01
7.711324e-02
-1.694772e-02
-3.939541e-02
1.540591e-03
6.847753e-03
6.388903e-02
8.213918e-02
1.218699e-01
1.331172e-01
1.831194e-01
2.067606e-01
3.325890e-01
4.383720e-01
3.076549e-01
1.593146e-01
6.315303e-02
1.880376e-02
6.106237e-03
5.971877e-04
2.996031e-04
7.059155e-04
9.893970e-01
8.256824e-01
6.268008e-01
4.711337e-01
3.880168e-01
3.123673e-01
2.725196e-01
2.853814e-01
2.839497e-01
2.393469e-01
1.020258e-01
-1.668175e-02
-2.700512e-02
-2.380519e-02
2.785486e-02
4.634588e-02
9.989333e-02
1.136487e-01
1.464096e-01
1.597918e-01
2.967928e-01
4.175187e-01
2.982051e-01
1.556695e-01
6.250041e-02
1.895654e-02
5.145385e-03
1.672518e-03
-7.252962e-07
6.429008e-06
9.422746e-01
7.259035e-01
5.673529e-01
4.449229e-01
3.836940e-01
3.279070e-01
2.775205e-01
2.592894e-01
2.694219e-01
3.382549e-01
2.990997e-01
1.462931e-01
2.909202e-02
-2.605878e-02
1.082642e-02
1.638332e-02
7.454377e-02
9.962972e-02
1.235898e-01
1.170874e-01
2.563643e-01
3.909261e-01
2.835887e-01
1.519834e-01
6.070336e-02
1.832855e-02
5.322771e-03
1.325438e-03
-1.605864e-05
-4.934922e-04
7.701353e-01
6.444779e-01
4.776536e-01
3.830229e-01
3.416281e-01
3.139603e-01
3.101776e-01
3.099620e-01
2.571064e-01
2.973567e-01
3.830013e-01
3.587205e-01
2.212480e-01
6.130569e-02
3.611180e-02
9.111982e-03
5.317830e-02
8.506860e-02
1.122948e-01
8.520767e-02
2.141459e-01
3.589088e-01
2.655670e-01
1.460133e-01
5.809700e-02
1.676854e-02
6.562521e-03
5.928106e-05
4.841389e-04
1.456420e-04
6.621796e-01
5.032896e-01
3.993764e-01
3.076618e-01
3.045028e-01
2.812055e-01
2.848746e-01
3.344818e-01
3.466987e-01
3.086667e-01
3.351760e-01
4.232885e-01
4.318875e-01
2.665180e-01
1.570908e-01
5.610302e-02
5.625994e-02
7.284271e-02
1.075560e-01
6.682349e-02
1.743782e-01
3.229675e-01
2.447873e-01
1.366687e-01
5.426243e-02
1.619545e-02
6.606779e-03
-5.997368e-04
7.205934e-04
4.809961e-04
4.914450e-01
3.176605e-01
2.721830e-01
2.369666e-01
2.769669e-01
2.808096e-01
3.134545e-01
3.187392e-01
3.662150e-01
4.111439e-01
3.757828e-01
3.829261e-01
4.811746e-01
4.528219e-01
3.710600e-01
2.048315e-01
1.225571e-01
8.593792e-02
1.082001e-01
6.264531e-02
1.407002e-01
2.858897e-01
2.204020e-01
1.246936e-01
4.930335e-02
1.628419e-02
4.820606e-03
-1.338452e-04
1.018715e-03
-1.906816e-04
2.593003e-01
1.717703e-01
1.007395e-01
1.318367e-01
2.389601e-01
2.698965e-01
3.247572e-01
3.914476e-01
3.756711e-01
4.279113e-01
4.685420e-01
4.459593e-01
4.674659e-01
4.831137e-01
5.218825e-01
4.214863e-01
2.908303e-01
1.709073e-01
1.348912e-01
7.489027e-02
1.187279e-01
2.489965e-01
1.934875e-01
1.101563e-01
4.404695e-02
1.490160e-02
3.508392e-03
6.014123e-04
1.133903e-03
-1.255158e-03
-8.702298e-03
-7.432848e-02
-4.573925e-03
7.156094e-02
1.695128e-01
3.081570e-01
3.392430e-01
4.034943e-01
4.611492e-01
4.708891e-01
4.878227e-01
5.108007e-01
5.470256e-01
5.051844e-01
5.324624e-01
5.374570e-01
4.942367e-01
3.563664e-01
2.366704e-01
1.238663e-01
1.199753e-01
2.155375e-01
1.662755e-01
9.314550e-02
3.849027e-02
1.194008e-02
3.517818e-03
5.131887e-04
6.348722e-04
-1.086604e-03
-3.955997e-01
-3.316126e-01
-1.858159e-01
3.257044e-02
2.231421e-01
3.096831e-01
4.071705e-01
4.635650e-01
4.914026e-01
5.199266e-01
5.693184e-01
5.418452e-01
5.721600e-01
5.967196e-01
5.833954e-01
5.430208e-01
5.689512e-01
5.405691e-01
4.283413e-01
2.543029e-01
1.731893e-01
2.001273e-01
1.426427e-01
7.583818e-02
3.185652e-02
9.069482e-03
3.258398e-03
2.628167e-04
1.588249e-04
1.721546e-04
-9.806726e-01
-6.198064e-01
-1.885788e-01
5.785171e-02
2.500996e-01
3.489136e-01
4.654539e-01
5.093461e-01
5.460357e-01
5.919168e-01
5.880565e-01
6.155176e-01
6.290575e-01
6.144940e-01
6.398693e-01
6.321957e-01
5.813023e-01
5.723708e-01
5.837360e-01
4.572192e-01
3.180821e-01
2.405488e-01
1.380641e-01
6.549258e-02
2.498475e-02
7.331708e-03
2.064064e-03
5.446085e-04
-2.147432e-04
4.347913e-04
-1.768834e+00
-8.146732e-01
-1.445476e-01
1.129921e-01
3.150448e-01
4.370769e-01
5.067949e-01
5.751020e-01
6.034763e-01
6.357717e-01
6.445825e-01
6.712331e-01
6.591474e-01
6.769992e-01
6.836503e-01
6.529520e-01
6.657527e-01
6.202150e-01
5.848544e-01
5.735539e-01
5.230646e-01
3.719543e-01
1.923293e-01
8.264281e-02
2.658296e-02
8.307217e-03
1.569599e-03
6.135996e-04
-1.098832e-04
2.138687e-04
SCALARS SRZ double 1
LOOKUP_TABLE srz
1.344595e-02
4.410031e-03
1.510521e-02
6.675559e-03
7.870610e-03
-3.337853e-03
1.159719e-02
-6.952876e-03
8.314491e-03
1.892439e-03
-5.728153e-03
1.582690e-02
-2.066150e-02
-1.115942e-02
1.310041e-03
-1.017607e-02
3.000026e-03
-2.551781e-03
5.086118e-03
-1.809603e-02
2.883910e-02
-3.364873e-03
-6.070247e-02
-3.900396e-02
-2.266379e-02
-7.516481e-03
-2.106772e-03
-9.028073e-04
1.604539e-04
-1.956982e-04
2.620048e-02
-5.618878e-03
2.454347e-03
1.671915e-02
3.548008e-03
4.854590e-03
1.871914e-02
-1.154777e-02
3.087441e-02
-1.023175e-02
7.648544e-03
5.546262e-03
-2.648184e-02
-4.056168e-02
-1.578386e-02
-1.663838e-02
-2.214075e-03
-1.402364e-02
1.056035e-02
-5.253961e-03
-3.994964e-04
-3.741078e-02
-8.250490e-02
-4.542206e-02
-2.511445e-02
-7.490771e-03
-2.302259e-03
-8.397960e-04
7.208622e-05
-1.144495e-04
1.184930e-02
-3.520243e-02
1.841445e-02
2.216940e-02
3.406101e-03
2.157364e-02
6.268766e-03
8.495934e-03
2.000411e-02
-3.663374e-03
4.657503e-03
-6.828303e-04
-4.114932e-02
-3.939751e-02
-3.234251e-02
-2.778077e-02
-1.317679e-02
-1.452177e-03
8.663120e-03
-4.768131e-02
-2.851579e-02
-5.299656e-02
-8.382913e-02
-4.524125e-02
-2.585388e-02
-7.352497e-03
-2.620664e-03
-6.622871e-04
-1.761291e-04
1.442452e-04
-1.103535e-02
-2.014067e-02
2.861000e-02
1.991836e-02
9.984775e-03
1.681120e-02
1.019865e-02
1.063143e-02
1.707054e-02
-4.791663e-03
4.281817e-03
-1.940715e-02
-3.452955e-02
-4.572299e-02
-5.370778e-02
-2.162782e-02
-9.615475e-03
-1.749894e-02
-2.964693e-02
-7.869866e-02
-4.338332e-02
-5.314438e-02
-7.864286e-02
-4.340219e-02
-2.432246e-02
-7.576959e-03
-2.156990e-03
-1.019670e-03
1.983222e-04
1.092095e-04
-1.123290e-02
-1.597492e-02
2.274316e-02
3.763460e-02
4.184007e-03
1.681100e-02
7.802321e-03
1.641385e-02
8.697714e-03
-9.967398e-03
4.754445e-03
-2.955333e-02
-4.003750e-02
-5.822029e-02
-4.311875e-02
-2.107019e-02
-3.700514e-02
-5.286305e-02
-5.910096e-02
-9.093107e-02
-4.560164e-02
-4.664816e-02
-7.240450e-02
-4.100952e-02
-2.292940e-02
-7.686174e-03
-1.816912e-03
-1.271362e-03
1.563644e-04
7.838950e-05
-2.884715e-03
-1.221946e-02
4.316665e-02
3.623068e-02
-8.247826e-03
1.996208e-02
1.186648e-02
9.190192e-03
5.259104e-04
-1.171676e-03
-1.201627e-02
-4.115885e-02
-4.153131e-02
-5.326986e-02
-4.350545e-02
-5.345143e-02
-7.169677e-02
-7.517129e-02
-6.996077e-02
-9.344445e-02
-4.197090e-02
-3.821180e-02
-6.634786e-02
-3.875041e-02
-2.166204e-02
-7.655304e-03
-1.882414e-03
-7.325143e-04
-2.013804e-04
-2.128437e-04
-1.949477e-02
-7.855461e-03
3.817089e-02
3.209280e-02
-9.668387e-03
2.006583e-02
8.267012e-03
2.142135e-03
4.838162e-03
-1.735307e-02
-2.766891e-02
-3.434703e-02
-4.451728e-02
-6.443243e-02
-7.236434e-02
-8.614143e-02
-8.822301e-02
-8.178815e-02
-7.229110e-02
-9.150318e-02
-3.556638e-02
-2.914756e-02
-6.098194e-02
-3.665079e-02
-2.068392e-02
-7.392017e-03
-2.224349e-03
-5.329900e-04
-1.136279e-04
3.026773e-04
5.919834e-03
-1.350190e-03
3.437432e-02
2.694601e-02
-1.253010e-02
2.059854e-02
4.880836e-03
-1.747811e-03
-1.099037e-02
-3.022349e-02
-1.838716e-02
-4.352328e-02
-7.142628e-02
-9.111966e-02
-9.806378e-02
-9.911746e-02
-9.015894e-02
-8.157412e-02
-7.152527e-02
-8.705934e-02
-2.672794e-02
-2.054675e-02
-5.638751e-02
-3.454207e-02
-2.035504e-02
-6.938053e-03
-2.081075e-03
-8.674738e-04
-3.252057e-04
4.982699e-04
-1.929119e-02
-1.745764e-02
2.920860e-02
3.004709e-02
-1.021883e-02
1.418061e-02
-5.476201e-03
-1.757313e-02
-1.808807e-02
-2.380198e-02
-3.464602e-02
-8.282832e-02
-9.990092e-02
-1.086600e-01
-1.065013e-01
-9.848064e-02
-8.609203e-02
-7.970781e-02
-6.874394e-02
-8.001265e-02
-1.609971e-02
-1.311413e-02
-5.249301e-02
-3.268284e-02
-2.028348e-02
-6.778024e-03
-1.905241e-03
-6.595577e-04
-3.393332e-04
5.672780e-04
-1.819853e-03
-6.601348e-03
3.760062e-02
2.614390e-02
-2.208186e-02
1.757066e-03
-1.756991e-02
-2.120141e-02
-1.846554e-02
-4.979093e-02
-8.064652e-02
-1.129177e-01
-1.109016e-01
-1.121064e-01
-1.036601e-01
-9.178086e-02
-8.115820e-02
-7.715962e-02
-6.332233e-02
-7.004012e-02
-5.391740e-03
-6.807856e-03
-4.937407e-02
-3.149383e-02
-1.988653e-02
-6.778247e-03
-2.206220e-03
-4.886030e-04
-3.515612e-04
5.323601e-04
1.627122e-03
-6.993497e-05
2.975112e-02
1.467394e-02
-3.204046e-02
-8.137792e-03
-2.482805e-02
-3.433178e-02
-5.547497e-02
-9.752906e-02
-1.083212e-01
-1.185845e-01
-1.097399e-01
-1.071863e-01
-9.506201e-02
-8.368846e-02
-7.720174e-02
-7.279356e-02
-5.431413e-02
-5.818664e-02
3.994197e-03
-1.495447e-03
-4.720460e-02
-3.086630e-02
-1.945797e-02
-6.649924e-03
-2.281008e-03
-5.349204e-04
-4.530956e-04
1.102803e-04
-1.894237e-02
-3.013578e-02
5.241103e-03
-5.544515e-03
-5.339742e-02
-2.984619e-02
-5.388461e-02
-7.811875e-02
-9.795737e-02
-1.169867e-01
-1.082298e-01
-1.135028e-01
-1.029382e-01
-9.690948e-02
-8.452698e-02
-7.735668e-02
-7.302569e-02
-6.485276e-02
-4.206193e-02
-4.647512e-02
1.163790e-02
2.514895e-03
-4.581447e-02
-3.041317e-02
-1.940891e-02
-6.556026e-03
-2.130572e-03
-5.926290e-04
-1.028616e-04
1.959215e-04
-3.164446e-02
-6.024015e-02
-2.568551e-02
-3.880750e-02
-8.443649e-02
-6.284949e-02
-9.136441e-02
-1.059614e-01
-1.046442e-01
-1.105336e-01
-1.002115e-01
-1.048769e-01
-9.106448e-02
-8.440698e-02
-7.611538e-02
-7.243657e-02
-6.579714e-02
-5.279945e-02
-2.870921e-02
-3.639367e-02
1.738788e-02
5.059435e-03
-4.486959e-02
-3.007970e-02
-1.947458e-02
-6.548418e-03
-2.101474e-03
-7.915447e-04
-4.705320e-05
2.327962e-04
-3.107532e-02
-6.432465e-02
-3.917757e-02
-5.141881e-02
-9.928968e-02
-7.996598e-02
-9.863387e-02
-9.897290e-02
-9.262998e-02
-1.003741e-01
-8.972698e-02
-9.134344e-02
-7.709270e-02
-7.457566e-02
-7.031321e-02
-6.534221e-02
-5.389583e-02
-3.853678e-02
-1.661959e-02
-2.866332e-02
2.117262e-02
6.555024e-03
-4.431159e-02
-2.993934e-02
-1.938546e-02
-6.603083e-03
-2.033832e-03
-7.937057e-04
-2.568478e-04
2.386865e-04
-1.950180e-02
-4.874414e-02
-2.244876e-02
-4.183781e-02
-9.409203e-02
-6.885679e-02
-8.186020e-02
-8.420968e-02
-8.134608e-02
-8.812378e-02
-7.465443e-02
-7.663051e-02
-6.673817e-02
-6.817832e-02
-6.294461e-02
-5.335659e-02
-3.898600e-02
-2.503013e-02
-7.228574e-03
-2.353407e-02
2.340311e-02
7.420887e-03
-4.409635e-02
-2.988497e-02
-1.928954e-02
-6.691489e-03
-1.972703e-03
-6.460337e-04
-2.869761e-04
4.091965e-04
-1.583555e-02
-3.609210e-02
-1.113159e-02
-2.894339e-02
-7.678226e-02
-5.170512e-02
-6.894511e-02
-7.279474e-02
-6.736881e-02
-7.202385e-02
-6.025706e-02
-6.678729e-02
-6.014385e-02
-6.019612e-02
-5.048757e-02
-3.795397e-02
-2.456428e-02
-1.443326e-02
-1.031566e-03
-2.057373e-02
2.462587e-02
7.818402e-03
-4.397911e-02
-2.985967e-02
-1.929427e-02
-6.677530e-03
-2.055527e-03
-6.280042e-04
-2.740587e-04
3.391692e-04
-1.554721e-02
-3.304951e-02
-9.576470e-04
-1.686219e-02
-6.621577e-02
-4.174491e-02
-5.650365e-02
-5.738285e-02
-5.187243e-02
-5.968886e-02
-5.198889e-02
-6.021898e-02
-5.121424e-02
-4.690585e-02
-3.465870e-02
-2.312615e-02
-1.333777e-02
-7.526856e-03
2.470398e-03
-1.902487e-02
2.517210e-02
7.969796e-03
-4.387380e-02
-2.988741e-02
-1.930159e-02
-6.587515e-03
-2.151932e-03
-6.367007e-04
-2.295125e-04
2.387486e-04
-1.382838e-02
-2.849699e-02
1.547219e-03
-1.237333e-02
-5.699575e-02
-2.863344e-02
-4.260217e-02
-4.555611e-02
-4.317749e-02
-5.317238e-02
-4.498451e-02
-4.986508e-02
-3.693677e-02
-3.092881e-02
-2.002965e-02
-1.196965e-02
-6.260008e-03
-3.739968e-03
4.240419e-03
-1.834040e-02
2.538747e-02
8.051881e-03
-4.386499e-02
-2.989036e-02
-1.929830e-02
-6.571737e-03
-2.127177e-03
-6.409914e-04
-2.078883e-04
2.500072e-04
-1.458583e-02
-2.943301e-02
6.052299e-03
-2.997953e-03
-4.654233e-02
-1.984518e-02
-3.585266e-02
-3.992865e-02
-3.716198e-02
-4.478739e-02
-3.290447e-02
-3.483229e-02
-2.134665e-02
-1.718685e-02
-9.649872e-03
-5.311887e-03
-2.585194e-03
-1.940079e-03
4.977251e-03
-1.808578e-02
2.551541e-02
8.065943e-03
-4.388692e-02
-2.983840e-02
-1.933945e-02
-6.609914e-03
-2.045189e-03
-6.937657e-04
-2.352970e-04
2.848767e-04
-1.297872e-02
-2.560410e-02
1.121185e-02
1.262476e-03
-4.332564e-02
-1.636151e-02
-3.101799e-02
-3.279395e-02
-2.684913e-02
-3.143475e-02
-1.810048e-02
-2.065485e-02
-9.357698e-03
-8.263226e-03
-3.885099e-03
-2.028741e-03
-9.152511e-04
-1.236731e-03
5.221881e-03
-1.798124e-02
2.553991e-02
8.058633e-03
-4.386105e-02
-2.982359e-02
-1.935808e-02
-6.617112e-03
-2.032415e-03
-7.131977e-04
-2.314804e-04
3.216759e-04
-1.445980e-02
-2.518398e-02
1.233084e-02
3.713582e-03
-3.892976e-02
-9.734429e-03
-2.184264e-02
-2.115735e-02
-1.377873e-02
-1.847722e-02
-6.502448e-03
-1.118085e-02
-2.443244e-03
-3.817770e-03
-1.296061e-03
-6.538173e-04
-2.956192e-04
-9.798053e-04
5.348795e-03
-1.796405e-02
2.551190e-02
8.080283e-03
-4.386771e-02
-2.985035e-02
-1.930493e-02
-6.619629e-03
-2.082029e-03
-6.622505e-04
-2.299534e-04
3.067364e-04
-1.286620e-02
-2.172172e-02
1.743451e-02
1.000118e-02
-3.122423e-02
-5.081458e-04
-1.166459e-02
-1.100412e-02
-4.416443e-03
-1.033017e-02
8.177990e-05
-6.410715e-03
6.590374e-04
-1.948394e-03
-2.982058e-04
-2.303281e-04
-1.249037e-04
-8.833410e-04
5.382276e-03
-1.795399e-02
2.554557e-02
8.083815e-03
-4.390695e-02
-2.985497e-02
-1.927976e-02
-6.633627e-03
-2.094640e-03
-6.238839e-04
-2.514832e-04
2.677940e-04
-1.084359e-02
-1.891675e-02
2.086696e-02
1.449119e-02
-2.578141e-02
5.346465e-03
-5.815716e-03
-5.401008e-03
6.086017e-04
-6.307640e-03
2.910773e-03
-4.575145e-03
1.806112e-03
-1.307995e-03
1.128647e-05
-6.445387e-05
-4.815491e-05
-9.025547e-04
5.349967e-03
-1.793265e-02
2.556227e-02
8.078845e-03
-4.387912e-02
-2.985223e-02
-1.932651e-02
-6.621792e-03
-2.069054e-03
-6.485299e-04
-2.422021e-04
2.678223e-04
-1.081584e-02
-1.840813e-02
2.232995e-02
1.664765e-02
-2.319521e-02
8.208442e-03
-2.956886e-03
-2.916227e-03
2.515085e-03
-4.914055e-03
3.944599e-03
-3.876549e-03
2.154507e-03
-1.178850e-03
8.627016e-05
-1.083966e-05
-2.760704e-05
-8.804646e-04
5.371147e-03
-1.796073e-02
2.551590e-02
8.090139e-03
-4.384042e-02
-2.985627e-02
-1.933939e-02
-6.600341e-03
-2.076738e-03
-6.870686e-04
-2.085190e-04
2.929431e-04
-1.074102e-02
-1.806096e-02
2.286861e-02
1.750539e-02
-2.209969e-02
9.290589e-03
-2.049170e-03
-2.187034e-03
3.100435e-03
-4.486301e-03
4.189949e-03
-3.746168e-03
2.283651e-03
-1.057359e-03
1.128514e-04
-5.931920e-05
-4.650809e-05
-8.493758e-04
5.392278e-03
-1.795929e-02
2.552247e-02
8.072872e-03
-4.388151e-02
-2.984637e-02
-1.929466e-02
-6.603015e-03
-2.095030e-03
-6.876130e-04
-2.152708e-04
3.045427e-04
-1.087108e-02
-1.811437e-02
2.296479e-02
1.764452e-02
-2.197851e-02
9.467586e-03
-1.778109e-03
-1.879158e-03
3.354488e-03
-4.341275e-03
4.243303e-03
-3.739120e-03
2.262036e-03
-1.078521e-03
1.422691e-04
2.413168e-06
-3.579170e-05
-9.036144e-04
5.360381e-03
-1.792142e-02
2.556377e-02
8.060624e-03
-4.390712e-02
-2.984729e-02
-1.929934e-02
-6.612508e-03
-2.066363e-03
-6.652011e-04
-2.597063e-04
2.935214e-04
-1.095674e-02
-1.813938e-02
2.296472e-02
1.775861e-02
-2.177389e-02
9.634295e-03
-1.733806e-03
-1.932653e-03
3.295124e-03
-4.320339e-03
4.337537e-03
-3.667642e-03
2.253224e-03
-1.126919e-03
1.119660e-04
3.190412e-06
-1.406489e-05
-8.771553e-04
5.362172e-03
-1.795733e-02
2.553713e-02
8.094921e-03
-4.385799e-02
-2.986246e-02
-1.934653e-02
-6.617618e-03
-2.043724e-03
-6.515831e-04
-2.614047e-04
2.774892e-04
-1.091870e-02
-1.811188e-02
2.298249e-02
1.770039e-02
-2.188089e-02
9.585840e-03
-1.672702e-03
-1.811779e-03
3.377372e-03
-4.346019e-03
4.242888e-03
-3.704705e-03
2.325333e-03
-1.048292e-03
9.239206e-05
-7.284983e-05
-3.903485e-05
-8.368407e-04
5.393587e-03
-1.797139e-02
2.551364e-02
8.091399e-03
-4.385012e-02
-2.984745e-02
-1.932748e-02
-6.627032e-03
-2.086705e-03
-6.549192e-04
-2.087103e-04
2.770143e-04
-1.094146e-02
-1.812593e-02
2.298807e-02
1.777240e-02
-2.179400e-02
9.595268e-03
-1.755965e-03
-1.913034e-03
3.345194e-03
-4.284865e-03
4.327940e-03
-3.697938e-03
2.251297e-03
-1.088594e-03
1.504199e-04
-3.005019e-06
-6.004467e-05
-9.130123e-04
5.374174e-03
-1.791423e-02
2.555352e-02
8.054753e-03
-4.389924e-02
-2.983170e-02
-1.927987e-02
-6.621598e-03
-2.118162e-03
-6.714504e-04
-1.973107e-04
2.936411e-04
-1.095228e-02
-1.812858e-02
2.296832e-02
1.771443e-02
-2.182559e-02
9.650400e-03
-1.647550e-03
-1.844073e-03
3.322067e-03
-4.362468e-03
4.280901e-03
-3.675617e-03
2.292362e-03
-1.093524e-03
1.174896e-04
5.769080e-07
-1.929829e-05
-8.952155e-04
5.346839e-03
-1.794531e-02
2.555809e-02
8.084588e-03
-4.388767e-02
-2.985999e-02
-1.931024e-02
-6.599401e-03
-2.067395e-03
-6.827168e-04
-2.583326e-04
3.052649e-04
-1.091879e-02
-1.811171e-02
2.300426e-02
1.776249e-02
-2.184099e-02
9.551811e-03
-1.748100e-03
-1.855887e-03
3.394821e-03
-4.300429e-03
4.263817e-03
-3.724424e-03
2.296088e-03
-1.054809e-03
1.070707e-04
-5.173825e-05
-1.921994e-05
-8.303529e-04
5.377994e-03
-1.799214e-02
2.551214e-02
8.107261e-03
-4.384254e-02
-2.986886e-02
-1.935576e-02
-6.602962e-03
-2.026272e-03
-6.700752e-04
-2.830059e-04
2.925156e-04
-1.096591e-02
-1.813997e-02
2.295049e-02
1.771980e-02
-2.178674e-02
9.677415e-03
-1.675233e-03
-1.904869e-03
3.294889e-03
-4.322029e-03
4.339111e-03
-3.676764e-03
2.240403e-03
-1.114047e-03
1.450459e-04
7.199096e-06
-4.828217e-05
-8.926275e-04
5.393994e-03
-1.792535e-02
2.552195e-02
8.052054e-03
-4.387256e-02
-2.983240e-02
-1.931471e-02
-6.626512e-03
-2.080747e-03
-6.529024e-04
-2.130883e-04
2.706200e-04
-1.094335e-02
-1.812920e-02
2.300487e-02
1.775299e-02
-2.187420e-02
9.539139e-03
-1.706134e-03
-1.797547e-03
3.404031e-03
-4.343287e-03
4.236237e-03
-3.699862e-03
2.320504e-03
-1.073039e-03
9.515793e-05
-2.544771e-05
-2.150050e-05
-8.876304e-04
5.362169e-03
-1.791989e-02
2.556488e-02
8.055031e-03
-4.391637e-02
-2.984135e-02
-1.926803e-02
-6.616784e-03
-2.133471e-03
-6.598056e-04
-1.659199e-04
2.721158e-04
-1.091581e-02
-1.809998e-02
2.296603e-02
1.773221e-02
-2.175651e-02
9.685312e-03
-1.714460e-03
-1.941359e-03
3.315347e-03
-4.274567e-03
4.344701e-03
-3.698946e-03
2.263498e-03
-1.067461e-03
1.235047e-04
-5.453786e-05
-4.111935e-05
-8.431092e-04
5.375176e-03
-1.798181e-02
2.554114e-02
8.118348e-03
-4.387340e-02
-2.988215e-02
-1.931833e-02
-6.599149e-03
-2.077369e-03
-6.701912e-04
-2.395315e-04
2.964514e-04
-1.099946e-02
-1.817589e-02
2.302051e-02
1.780724e-02
-2.182280e-02
9.612663e-03
-1.601082e-03
-1.723396e-03
3.408913e-03
-4.346897e-03
4.283254e-03
-3.660575e-03
2.285418e-03
-1.108156e-03
1.391409e-04
1.764966e-05
-5.144979e-05
-9.137496e-04
5.379496e-03
-1.793472e-02
2.552354e-02
8.084103e-03
-4.383622e-02
-2.984531e-02
-1.937131e-02
-6.633559e-03
-2.007551e-03
-6.558121e-04
-3.187168e-04
3.069162e-04
-1.086257e-02
-1.801495e-02
2.305013e-02
1.783030e-02
-2.159108e-02
9.871353e-03
-1.546651e-03
-1.754452e-03
3.520224e-03
-4.142287e-03
4.372047e-03
-3.676271e-03
2.332525e-03
-1.036043e-03
1.035215e-04
-3.388676e-05
-7.449921e-06
-8.834166e-04
5.341554e-03
-1.792761e-02
2.556250e-02
8.046476e-03
-4.388472e-02
-2.980628e-02
-1.931924e-02
-6.651595e-03
-2.060878e-03
-6.544431e-04
-2.507633e-04
2.884770e-04
-1.110232e-02
-1.832071e-02
2.309253e-02
1.809347e-02
-2.141621e-02
1.014957e-02
-9.617292e-04
-1.115873e-03
3.915041e-03
-3.897003e-03
4.663444e-03
-3.438835e-03
2.382743e-03
-1.025328e-03
1.768356e-04
-2.369201e-05
-4.423133e-05
-8.296570e-04
5.392095e-03
-1.799287e-02
2.552224e-02
8.104470e-03
-4.388357e-02
-2.987245e-02
-1.927486e-02
-6.576476e-03
-2.147962e-03
-7.010323e-04
-1.341384e-04
2.773468e-04
-1.109541e-02
-1.826005e-02
2.281391e-02
1.788267e-02
-2.099768e-02
1.095062e-02
-1.319284e-04
-1.108848e-04
5.180793e-03
-2.734388e-03
5.444941e-03
-2.885552e-03
2.820394e-03
-8.116484e-04
2.573555e-04
9.307306e-05
-6.145813e-06
-9.078230e-04
5.400071e-03
-1.792929e-02
2.548667e-02
8.084558e-03
-4.383085e-02
-2.989358e-02
-1.932627e-02
-6.543536e-03
-2.102061e-03
-7.164997e-04
-1.912626e-04
2.980711e-04
-1.165386e-02
-1.958313e-02
2.175912e-02
1.713817e-02
-2.167477e-02
1.106001e-02
1.265712e-03
2.076507e-03
7.583601e-03
-2.283823e-04
7.824292e-03
-1.073068e-03
4.025789e-03
4.466095e-08
6.623543e-04
1.979515e-04
1.058948e-04
-8.222451e-04
5.341110e-03
-1.792373e-02
2.558702e-02
8.045732e-03
-4.390936e-02
-2.981845e-02
-1.931504e-02
-6.651242e-03
-2.018637e-03
-6.312455e-04
-3.525483e-04
3.060372e-04
-1.218367e-02
-2.116077e-02
1.817000e-02
1.299015e-02
-2.467878e-02
9.312433e-03
8.520279e-04
3.741327e-03
1.132510e-02
4.530498e-03
1.265719e-02
3.280161e-03
7.341113e-03
2.144252e-03
2.010651e-03
9.165348e-04
3.359183e-04
-6.658250e-04
5.464507e-03
-1.798869e-02
2.557724e-02
8.128311e-03
-4.396631e-02
-2.984540e-02
-1.923555e-02
-6.689652e-03
-2.074405e-03
-5.821108e-04
-3.112131e-04
2.681935e-04
-1.314721e-02
-2.469729e-02
1.319836e-02
5.981368e-03
-3.336311e-02
1.593598e-03
-3.879952e-03
2.289083e-03
1.333362e-02
1.003667e-02
2.041127e-02
1.145084e-02
1.462760e-02
7.646696e-03
5.483104e-03
2.961627e-03
1.405297e-03
-3.454614e-04
5.610896e-03
-1.782667e-02
2.551089e-02
8.079282e-03
-4.382909e-02
-2.987832e-02
-1.933097e-02
-6.576940e-03
-2.126153e-03
-6.951812e-04
-9.705207e-05
2.503741e-04
-1.567621e-02
-3.013064e-02
4.326061e-03
-4.446413e-03
-4.409203e-02
-1.016536e-02
-1.563422e-02
-6.350402e-03
9.857426e-03
1.224381e-02
2.807993e-02
2.287346e-02
2.695033e-02
1.856793e-02
1.359165e-02
7.908293e-03
4.134572e-03
1.024568e-03
6.026480e-03
-1.763579e-02
2.567131e-02
7.977919e-03
-4.380146e-02
-2.975470e-02
-1.946762e-02
-6.587847e-03
-2.015529e-03
-7.585341e-04
-1.024148e-04
3.004779e-04
-1.763070e-02
-3.853845e-02
-9.128798e-03
-2.215865e-02
-6.293054e-02
-2.595197e-02
-2.834718e-02
-1.798473e-02
2.367976e-04
7.590245e-03
3.051146e-02
3.286787e-02
4.247308e-02
3.552281e-02
2.846049e-02
1.872362e-02
1.049580e-02
4.331865e-03
7.640432e-03
-1.719612e-02
2.580976e-02
8.189842e-03
-4.388190e-02
-2.979927e-02
-1.933438e-02
-6.700986e-03
-1.994346e-03
-5.951358e-04
-3.555619e-04
3.177101e-04
-2.255892e-02
-5.168643e-02
-3.027679e-02
-4.766195e-02
-9.099157e-02
-5.377250e-02
-5.007279e-02
-3.110387e-02
-7.820919e-03
1.470037e-03
2.770047e-02
3.679086e-02
5.530027e-02
5.552042e-02
5.024830e-02
3.740199e-02
2.360657e-02
1.168164e-02
1.125756e-02
-1.558390e-02
2.616707e-02
8.439983e-03
-4.372285e-02
-3.003835e-02
-1.920418e-02
-6.582593e-03
-2.180286e-03
-5.127393e-04
-4.045041e-04
2.445562e-04
-3.097845e-02
-7.738847e-02
-7.005388e-02
-9.197660e-02
-1.313744e-01
-8.892879e-02
-8.136602e-02
-5.479057e-02
-1.935721e-02
-8.486875e-04
2.817455e-02
3.863227e-02
6.241272e-02
7.199501e-02
7.499497e-02
6.373062e-02
4.533647e-02
2.622654e-02
1.889285e-02
-1.210492e-02
2.769631e-02
8.741199e-03
-4.360178e-02
-2.992220e-02
-1.931678e-02
-6.431860e-03
-2.183047e-03
-7.404874e-04
-1.527111e-04
2.539896e-04
-5.526986e-02
-1.337299e-01
-1.387673e-01
-1.614407e-01
-1.938526e-01
-1.365763e-01
-1.142159e-01
-7.983981e-02
-3.755967e-02
-6.571529e-03
3.390936e-02
4.737379e-02
7.025686e-02
8.338571e-02
9.591974e-02
9.335857e-02
7.544182e-02
4.975587e-02
3.356045e-02
-5.023976e-03
3.088001e-02
9.910146e-03
-4.359424e-02
-2.954463e-02
-1.928507e-02
-6.654802e-03
-1.942806e-03
-9.146869e-04
-7.740820e-05
3.849006e-04
-1.121454e-01
-2.215123e-01
-2.112317e-01
-2.137937e-01
-2.367765e-01
-1.773351e-01
-1.455259e-01
-9.586343e-02
-4.599151e-02
-1.237872e-02
3.774781e-02
6.287205e-02
8.769409e-02
9.721279e-02
1.119451e-01
1.193559e-01
1.097486e-01
8.221634e-02
5.699513e-02
8.465007e-03
3.684220e-02
1.230875e-02
-4.281969e-02
-2.939190e-02
-1.907302e-02
-6.869644e-03
-1.925035e-03
-7.140885e-04
-2.869952e-04
3.998963e-04
-1.123341e-01
-2.092485e-01
-1.620423e-01
-1.463784e-01
-1.661530e-01
-1.224171e-01
-1.201917e-01
-8.762728e-02
-3.402713e-02
2.167160e-03
4.809084e-02
7.807291e-02
1.131178e-01
1.221439e-01
1.304896e-01
1.399988e-01
1.412272e-01
1.201978e-01
8.958984e-02
2.999914e-02
4.789137e-02
1.652884e-02
-4.084136e-02
-2.907013e-02
-1.911002e-02
-6.570119e-03
-2.173856e-03
-4.585891e-04
-3.533843e-04
2.611988e-04
3.438255e-02
1.143627e-02
3.257608e-02
3.138909e-02
6.717532e-03
4.897317e-02
2.901699e-02
9.746532e-03
1.917386e-02
4.396974e-02
8.518182e-02
1.037615e-01
1.393450e-01
1.562261e-01
1.602281e-01
1.614442e-01
1.667113e-01
1.570277e-01
1.292659e-01
6.012316e-02
6.554024e-02
2.445965e-02
-3.775508e-02
-2.800745e-02
-1.916869e-02
-6.167987e-03
-2.304855e-03
-5.192685e-04
-2.247892e-04
1.423586e-04
5.418637e-02
1.050373e-01
1.609805e-01
1.635377e-01
1.361274e-01
1.917837e-01
2.029800e-01
1.931061e-01
1.579321e-01
1.296889e-01
1.511810e-01
1.579903e-01
1.759261e-01
1.915561e-01
2.003638e-01
1.923344e-01
1.898945e-01
1.880190e-01
1.704183e-01
9.807083e-02
9.038718e-02
3.765582e-02
-3.279858e-02
-2.626060e-02
-1.860021e-02
-6.163705e-03
-2.156351e-03
-6.777196e-04
-1.389480e-04
1.902866e-04
1.786446e-02
9.413559e-02
2.052230e-01
2.509681e-01
2.406859e-01
2.845794e-01
2.930394e-01
3.253179e-01
3.278423e-01
2.746087e-01
2.514326e-01
2.403260e-01
2.397807e-01
2.339617e-01
2.423145e-01
2.344438e-01
2.185655e-01
2.136201e-01
2.074140e-01
1.402500e-01
1.226468e-01
5.637888e-02
-2.473306e-02
-2.362092e-02
-1.727563e-02
-6.341772e-03
-1.840490e-03
-7.521047e-04
-1.431629e-04
2.993209e-04
4.905817e-02
1.392770e-01
2.623925e-01
3.215873e-01
3.400482e-01
4.087800e-01
3.989199e-01
3.977779e-01
4.259289e-01
4.145091e-01
3.806106e-01
3.431183e-01
3.312207e-01
2.998158e-01
2.873234e-01
2.801370e-01
2.577062e-01
2.389310e-01
2.377466e-01
1.816666e-01
1.608426e-01
8.045209e-02
-1.284256e-02
-1.935557e-02
-1.548177e-02
-6.297089e-03
-1.538929e-03
-8.181385e-04
-2.051570e-04
3.575436e-04
4.883723e-02
1.527097e-01
3.102465e-01
3.938612e-01
4.104467e-01
4.855290e-01
5.147968e-01
5.094012e-01
4.976419e-01
4.920945e-01
4.869016e-01
4.471702e-01
4.334231e-01
3.928875e-01
3.503209e-01
3.264940e-01
3.035281e-01
2.704811e-01
2.627851e-01
2.183122e-01
2.016406e-01
1.094291e-01
2.902417e-03
-1.286531e-02
-1.345804e-02
-5.637584e-03
-1.458150e-03
-7.068134e-04
-3.531366e-04
5.568433e-04
6.909066e-02
2.122627e-01
3.670681e-01
4.701311e-01
5.187761e-01
5.813351e-01
5.821495e-01
6.036439e-01
5.981334e-01
5.651583e-01
5.518144e-01
5.168009e-01
5.146361e-01
4.922171e-01
4.391457e-01
3.852708e-01
3.514334e-01
3.102741e-01
2.875171e-01
2.482840e-01
2.411981e-01
1.422659e-01
2.181465e-02
-3.912301e-03
-1.111656e-02
-4.207002e-03
-1.669751e-03
-3.824200e-04
-5.207601e-04
6.836128e-04
6.913771e-02
2.564841e-01
4.592778e-01
5.563516e-01
5.777988e-01
6.870240e-01
6.808456e-01
6.693290e-01
6.669840e-01
6.442034e-01
6.276264e-01
5.675279e-01
5.521841e-01
5.558418e-01
5.313607e-01
4.664226e-01
4.083883e-01
3.571421e-01
3.176263e-01
2.730336e-01
2.763521e-01
1.770499e-01
4.301278e-02
7.085100e-03
-7.883120e-03
-2.537284e-03
-1.711075e-03
-2.048858e-04
-3.996749e-04
4.013616e-04
1.173405e-01
3.235157e-01
5.577626e-01
7.026801e-01
7.045231e-01
7.477223e-01
7.618779e-01
7.504542e-01
7.309384e-01
6.829097e-01
6.870646e-01
6.395097e-01
5.879502e-01
5.726640e-01
5.793419e-01
5.466862e-01
4.820444e-01
4.151615e-01
3.579949e-01
2.980538e-01
3.060071e-01
2.111451e-01
6.587243e-02
1.912513e-02
-3.270560e-03
-1.182441e-03
-1.146356e-03
-4.020887e-04
7.090025e-05
-1.234218e-04
1.537900e-01
4.385592e-01
6.965779e-01
7.787841e-01
8.312550e-01
8.476802e-01
8.266818e-01
7.936058e-01
7.914560e-01
7.386941e-01
7.055097e-01
6.824709e-01
6.448521e-01
6.014054e-01
5.846244e-01
5.782718e-01
5.472898e-01
4.854164e-01
4.137604e-01
3.328854e-01
3.332768e-01
2.427081e-01
8.957932e-02
3.145419e-02
2.361528e-03
8.470635e-05
-2.917188e-04
-6.025223e-04
3.989692e-04
-4.518612e-04
2.555796e-01
5.981600e-01
8.575241e-01
9.243141e-01
9.148365e-01
9.043449e-01
8.842806e-01
8.423481e-01
8.088448e-01
7.758625e-01
7.394917e-01
7.055475e-01
6.633494e-01
6.393832e-01
6.148108e-01
5.775995e-01
5.611358e-01
5.389547e-01
4.781566e-01
3.865277e-01
3.676514e-01
2.733352e-01
1.139821e-01
4.374640e-02
8.406666e-03
1.624824e-03
4.251046e-04
-5.201315e-04
3.735118e-04
-3.080078e-04
4.533703e-01
8.782976e-01
1.050259e+00
1.031954e+00
9.672267e-01
9.612503e-01
9.057083e-01
8.577143e-01
8.341462e-01
7.949221e-01
7.450828e-01
7.271566e-01
6.904371e-01
6.414168e-01
6.335283e-01
6.055897e-01
5.647494e-01
5.393316e-01
5.143273e-01
4.494500e-01
4.177482e-01
3.111405e-01
1.418017e-01
5.712130e-02
1.473371e-02
3.458020e-03
1.019869e-03
-3.011572e-04
2.519233e-04
-1.298734e-04
7.961616e-01
1.214387e+00
1.139184e+00
1.069029e+00
9.909948e-01
9.588438e-01
9.072293e-01
8.732419e-01
8.293063e-01
7.946412e-01
7.664308e-01
7.212759e-01
6.959233e-01
6.641449e-01
6.351911e-01
6.049107e-01
5.862832e-01
5.549884e-01
5.025472e-01
4.746078e-01
4.720999e-01
3.585432e-01
1.817847e-01
7.611332e-02
2.346987e-02
6.231399e-03
1.682316e-03
4.835495e-05
1.695546e-04
1.001403e-05
SCALARS STHETA double 1
LOOKUP_TABLE stheta
7.143621e-01
6.976755e-01
6.776279e-01
6.769220e-01
6.755488e-01
6.609694e-01
6.449800e-01
6.408668e-01
6.160650e-01
6.083468e-01
5.982390e-01
5.695667e-01
5.744952e-01
5.485050e-01
5.662472e-01
5.266472e-01
5.247821e-01
4.942292e-01
4.860687e-01
4.199724e-01
4.485710e-01
4.597565e-01
2.821344e-01
1.356493e-01
4.973820e-02
1.346242e-02
4.669806e-03
1.909943e-04
3.683445e-04
7.085256e-05
7.013251e-01
7.033462e-01
6.910713e-01
6.712720e-01
6.737566e-01
6.626278e-01
6.408437e-01
6.400735e-01
6.140815e-01
6.121438e-01
5.920752e-01
5.767035e-01
5.725227e-01
5.466948e-01
5.573346e-01
5.198653e-01
5.168247e-01
4.896496e-01
4.786473e-01
4.111028e-01
4.408970e-01
4.607396e-01
2.881053e-01
1.411009e-01
5.289346e-02
1.476679e-02
4.991532e-03
4.065886e-04
3.338138e-04
1.283038e-05
6.976380e-01
7.120003e-01
6.871702e-01
6.691157e-01
6.736657e-01
6.554609e-01
6.418187e-01
6.358950e-01
6.169277e-01
6.077217e-01
5.936538e-01
5.753443e-01
5.734648e-01
5.425051e-01
5.524601e-01
5.128662e-01
5.125431e-01
4.816250e-01
4.735535e-01
4.056574e-01
4.351837e-01
4.643648e-01
2.960610e-01
1.490934e-01
5.607229e-02
1.640456e-02
5.316818e-03
4.223199e-04
5.252868e-04
7.897049e-06
7.028838e-01
7.047849e-01
6.767623e-01
6.645895e-01
6.732206e-01
6.575465e-01
6.351175e-01
6.379514e-01
6.131088e-01
6.076966e-01
5.925580e-01
5.755418e-01
5.700001e-01
5.418209e-01
5.470900e-01
5.079322e-01
5.071424e-01
4.765965e-01
4.700223e-01
4.006059e-01
4.362456e-01
4.705082e-01
3.060536e-01
1.555825e-01
5.892832e-02
1.789920e-02
5.306907e-03
7.116330e-04
5.162807e-04
-4.631162e-04
6.953306e-01
7.027517e-01
6.820243e-01
6.672582e-01
6.707007e-01
6.486216e-01
6.376033e-01
6.349442e-01
6.117170e-01
6.066947e-01
5.924718e-01
5.719648e-01
5.699687e-01
5.398274e-01
5.409492e-01
5.061689e-01
5.014257e-01
4.746728e-01
4.679827e-01
4.000637e-01
4.404409e-01
4.782496e-01
3.159115e-01
1.609596e-01
6.150734e-02
1.895658e-02
5.372792e-03
9.029933e-04
5.405736e-04
-4.597752e-04
6.934697e-01
7.005069e-01
6.776237e-01
6.592251e-01
6.648870e-01
6.507327e-01
6.345966e-01
6.329124e-01
6.110731e-01
6.052413e-01
5.917956e-01
5.683096e-01
5.717305e-01
5.342679e-01
5.389550e-01
5.041857e-01
4.977978e-01
4.763550e-01
4.681228e-01
4.027598e-01
4.459720e-01
4.873711e-01
3.244555e-01
1.654452e-01
6.373698e-02
1.945539e-02
5.693254e-03
8.918984e-04
3.998699e-04
4.999606e-06
6.848891e-01
6.954155e-01
6.791209e-01
6.565281e-01
6.656881e-01
6.473965e-01
6.319577e-01
6.341970e-01
6.075679e-01
6.056372e-01
5.881280e-01
5.689484e-01
5.701852e-01
5.302119e-01
5.395711e-01
5.021612e-01
4.989279e-01
4.799210e-01
4.701060e-01
4.067524e-01
4.528159e-01
4.969357e-01
3.316060e-01
1.691162e-01
6.544629e-02
1.978281e-02
5.965572e-03
8.983523e-04
1.643647e-04
3.264738e-04
6.848516e-01
6.957376e-01
6.746700e-01
6.519508e-01
6.618163e-01
6.462059e-01
6.327611e-01
6.309941e-01
6.070323e-01
6.037861e-01
5.876453e-01
5.693123e-01
5.668289e-01
5.302529e-01
5.408209e-01
5.030035e-01
5.033841e-01
4.837640e-01
4.730760e-01
4.116821e-01
4.611391e-01
5.059199e-01
3.375827e-01
1.719166e-01
6.666888e-02
2.001210e-02
6.061744e-03
1.131440e-03
-1.334784e-05
4.366859e-04
6.770442e-01
6.878797e-01
6.695302e-01
6.500535e-01
6.630363e-01
6.458115e-01
6.298417e-01
6.301143e-01
6.059767e-01
6.035155e-01
5.886306e-01
5.669192e-01
5.670023e-01
5.329173e-01
5.432421e-01
5.068407e-01
5.086945e-01
4.873984e-01
4.766175e-01
4.182488e-01
4.701418e-01
5.139741e-01
3.422358e-01
1.739611e-01
6.759942e-02
2.012455e-02
6.021486e-03
1.173611e-03
7.267436e-05
3.237894e-04
6.768794e-01
6.889059e-01
6.712032e-01
6.517457e-01
6.608864e-01
6.428333e-01
6.298977e-01
6.299776e-01
6.067083e-01
6.048872e-01
5.870571e-01
5.675970e-01
5.707767e-01
5.364424e-01
5.471819e-01
5.121902e-01
5.137311e-01
4.905286e-01
4.816078e-01
4.263471e-01
4.790085e-01
5.208195e-01
3.454934e-01
1.755469e-01
6.798531e-02
2.042307e-02
6.131258e-03
8.836467e-04
2.588458e-04
1.054087e-04
6.724997e-01
6.851962e-01
6.676700e-01
6.472930e-01
6.592580e-01
6.445966e-01
6.307772e-01
6.312857e-01
6.078869e-01
6.040765e-01
5.886080e-01
5.723947e-01
5.750943e-01
5.405567e-01
5.523641e-01
5.180043e-01
5.175743e-01
4.941933e-01
4.886450e-01
4.351440e-01
4.872640e-01
5.258573e-01
3.478641e-01
1.767172e-01
6.786442e-02
2.073956e-02
6.226808e-03
8.554292e-04
5.109147e-04
-2.899202e-05
6.615629e-01
6.809522e-01
6.672882e-01
6.504352e-01
6.630372e-01
6.460929e-01
6.323599e-01
6.328223e-01
6.084465e-01
6.072544e-01
5.942345e-01
5.772392e-01
5.792357e-01
5.456714e-01
5.584665e-01
5.226706e-01
5.208305e-01
4.999343e-01
4.970628e-01
4.440355e-01
4.940204e-01
5.291963e-01
3.496522e-01
1.772887e-01
6.794666e-02
2.079399e-02
6.029481e-03
9.582064e-04
4.595912e-04
-6.508776e-05
6.735071e-01
6.909804e-01
6.741711e-01
6.543611e-01
6.646400e-01
6.487421e-01
6.351580e-01
6.351712e-01
6.130450e-01
6.133474e-01
5.991101e-01
5.813592e-01
5.843259e-01
5.520085e-01
5.636222e-01
5.259637e-01
5.256752e-01
5.077221e-01
5.061114e-01
4.519983e-01
4.986883e-01
5.315898e-01
3.506356e-01
1.774324e-01
6.834587e-02
2.067237e-02
6.041616e-03
1.032152e-03
1.859242e-04
-2.192852e-05
6.882789e-01
6.971888e-01
6.781896e-01
6.580649e-01
6.699537e-01
6.532609e-01
6.391254e-01
6.410266e-01
6.194303e-01
6.180893e-01
6.032075e-01
5.866366e-01
5.908468e-01
5.574015e-01
5.669721e-01
5.302990e-01
5.329061e-01
5.167218e-01
5.147703e-01
4.578487e-01
5.017692e-01
5.332238e-01
3.509390e-01
1.775867e-01
6.851151e-02
2.051595e-02
6.259698e-03
1.051196e-03
2.344078e-04
1.745872e-04
6.997384e-01
7.084927e-01
6.880854e-01
6.668029e-01
6.758504e-01
6.587496e-01
6.460436e-01
6.471059e-01
6.235417e-01
6.221518e-01
6.088969e-01
5.933299e-01
5.961491e-01
5.607226e-01
5.711123e-01
5.371992e-01
5.418213e-01
5.257657e-01
5.215052e-01
4.616396e-01
5.038020e-01
5.339456e-01
3.511464e-01
1.777681e-01
6.839314e-02
2.054663e-02
6.243850e-03
8.962042e-04
3.279951e-04
2.015189e-04
7.065098e-01
7.142579e-01
6.931870e-01
6.707222e-01
6.813445e-01
6.650651e-01
6.505567e-01
6.505166e-01
6.282177e-01
6.286268e-01
6.155903e-01
5.981398e-01
5.992938e-01
5.649254e-01
5.780078e-01
5.461231e-01
5.510755e-01
5.330470e-01
5.258761e-01
4.640814e-01
5.048131e-01
5.341688e-01
3.514323e-01
1.777400e-01
6.834099e-02
2.072667e-02
6.117143e-03
8.954534e-04
3.237629e-04
7.296310e-05
7.099713e-01
7.192058e-01
6.986559e-01
6.776618e-01
6.870859e-01
6.689477e-01
6.549850e-01
6.567821e-01
6.352596e-01
6.346135e-01
6.194790e-01
6.011405e-01
6.038925e-01
5.721546e-01
5.870938e-01
5.554593e-01
5.585795e-01
5.377594e-01
5.285784e-01
4.653751e-01
5.051528e-01
5.343871e-01
3.515265e-01
1.776406e-01
6.841155e-02
2.074134e-02
6.076720e-03
1.041475e-03
3.068544e-04
3.596998e-05
7.150529e-01
7.242656e-01
7.038120e-01
6.811930e-01
6.908626e-01
6.746424e-01
6.616857e-01
6.627994e-01
6.396426e-01
6.376119e-01
6.228304e-01
6.066611e-01
6.118356e-01
5.815542e-01
5.964091e-01
5.628716e-01
5.633424e-01
5.405679e-01
5.299881e-01
4.658065e-01
5.053990e-01
5.345155e-01
3.514366e-01
1.777123e-01
6.842869e-02
2.062731e-02
6.131416e-03
1.033977e-03
2.616212e-04
5.392730e-05
7.176282e-01
7.273858e-01
7.072673e-01
6.866451e-01
6.973154e-01
6.802950e-01
6.659107e-01
6.659016e-01
6.426531e-01
6.421198e-01
6.297100e-01
6.154763e-01
6.214941e-01
5.906123e-01
6.034069e-01
5.674124e-01
5.660912e-01
5.419985e-01
5.304568e-01
4.660301e-01
5.055673e-01
5.344437e-01
3.514336e-01
1.778166e-01
6.835799e-02
2.062068e-02
6.203248e-03
9.410101e-04
2.885920e-04
1.019247e-04
7.229476e-01
7.329272e-01
7.130429e-01
6.911081e-01
7.004280e-01
6.829475e-01
6.689481e-01
6.703091e-01
6.492360e-01
6.506912e-01
6.393417e-01
6.250817e-01
6.298541e-01
5.967789e-01
6.074153e-01
5.698973e-01
5.673972e-01
5.424617e-01
5.306991e-01
4.662029e-01
5.055188e-01
5.344258e-01
3.515035e-01
1.777653e-01
6.834258e-02
2.068516e-02
6.181843e-03
9.229213e-04
3.381516e-04
1.208681e-04
7.249528e-01
7.347804e-01
7.147366e-01
6.936642e-01
7.044194e-01
6.885523e-01
6.764011e-01
6.793916e-01
6.591078e-01
6.604642e-01
6.482134e-01
6.322356e-01
6.349174e-01
6.001020e-01
6.094968e-01
5.709491e-01
5.677602e-01
5.426763e-01
5.308620e-01
4.661641e-01
5.054995e-01
5.345252e-01
3.514704e-01
1.776968e-01
6.841355e-02
2.067300e-02
6.123819e-03
9.857586e-04
3.126532e-04
7.776457e-05
7.317857e-01
7.420675e-01
7.229838e-01
7.027410e-01
7.141647e-01
6.988035e-01
6.865971e-01
6.889257e-01
6.676103e-01
6.675574e-01
6.535747e-01
6.359810e-01
6.374685e-01
6.017103e-01
6.102734e-01
5.712448e-01
5.679774e-01
5.428033e-01
5.307968e-01
4.661296e-01
5.055778e-01
5.345155e-01
3.514237e-01
1.777482e-01
6.843051e-02
2.061891e-02
6.135281e-03
1.026082e-03
2.714272e-04
5.725351e-05
7.419628e-01
7.522122e-01
7.327414e-01
7.121239e-01
7.230192e-01
7.068559e-01
6.937541e-01
6.950962e-01
6.725561e-01
6.712063e-01
6.561634e-01
6.377431e-01
6.384805e-01
6.021384e-01
6.104820e-01
5.714569e-01
5.680817e-01
5.427508e-01
5.307971e-01
4.662084e-01
5.055414e-01
5.344402e-01
3.514760e-01
1.777819e-01
6.837727e-02
2.064135e-02
6.168108e-03
9.796868e-04
2.817354e-04
8.520548e-05
7.479260e-01
7.582067e-01
7.386868e-01
7.177326e-01
7.281143e-01
7.113594e-01
6.974915e-01
6.979567e-01
6.746838e-01
6.727932e-01
6.572305e-01
6.382988e-01
6.387227e-01
6.023179e-01
6.106331e-01
5.714635e-01
5.680025e-01
5.427757e-01
5.308842e-01
4.661907e-01
5.054941e-01
5.344813e-01
3.514925e-01
1.777209e-01
6.837431e-02
2.069917e-02
6.154864e-03
9.354468e-04
3.190977e-04
1.034190e-04
7.508312e-01
7.611228e-01
7.414655e-01
7.203173e-01
7.304161e-01
7.132481e-01
6.989781e-01
6.991153e-01
6.754853e-01
6.732065e-01
6.574017e-01
6.384528e-01
6.389193e-01
6.024313e-01
6.105939e-01
5.714057e-01
5.680488e-01
5.428211e-01
5.308218e-01
4.661473e-01
5.055624e-01
5.345205e-01
3.514421e-01
1.777118e-01
6.840632e-02
2.067470e-02
6.138501e-03
9.698988e-04
3.226055e-04
8.424682e-05
7.517391e-01
7.620746e-01
7.423969e-01
7.211047e-01
7.310352e-01
7.137644e-01
6.993967e-01
6.993970e-01
6.756728e-01
6.733920e-01
6.575837e-01
6.385373e-01
6.388720e-01
6.023560e-01
6.106170e-01
5.714986e-01
5.680667e-01
5.427484e-01
5.307990e-01
4.661987e-01
5.055612e-01
5.344669e-01
3.514592e-01
1.777741e-01
6.839146e-02
2.061921e-02
6.154803e-03
1.007968e-03
2.924829e-04
6.771797e-05
7.520291e-01
7.623572e-01
7.426662e-01
7.214040e-01
7.313368e-01
7.139832e-01
6.995167e-01
6.994834e-01
6.757624e-01
6.734492e-01
6.575751e-01
6.384951e-01
6.388632e-01
6.024018e-01
6.106558e-01
5.714689e-01
5.680185e-01
5.427727e-01
5.308579e-01
4.661859e-01
5.055040e-01
5.344679e-01
3.514939e-01
1.777652e-01
6.837806e-02
2.064529e-02
6.161833e-03
9.779616e-04
2.791315e-04
8.565082e-05
7.520404e-01
7.623828e-01
7.426864e-01
7.213801e-01
7.312951e-01
7.139913e-01
6.995827e-01
6.995350e-01
6.757377e-01
6.733786e-01
6.575498e-01
6.385585e-01
6.389493e-01
6.024058e-01
6.105758e-01
5.714232e-01
5.680707e-01
5.428272e-01
5.308261e-01
4.661417e-01
5.055364e-01
5.345099e-01
3.514591e-01
1.777165e-01
6.840306e-02
2.069215e-02
6.147410e-03
9.440544e-04
2.928032e-04
1.046530e-04
7.521180e-01
7.624626e-01
7.427750e-01
7.214778e-01
7.313587e-01
7.139741e-01
6.994992e-01
6.994682e-01
6.757614e-01
6.734703e-01
6.576058e-01
6.385134e-01
6.388594e-01
6.023824e-01
6.106428e-01
5.714835e-01
5.680413e-01
5.427597e-01
5.308248e-01
4.661989e-01
5.055556e-01
5.344743e-01
3.514452e-01
1.777410e-01
6.840342e-02
2.066436e-02
6.147341e-03
9.716167e-04
3.080573e-04
8.792530e-05
7.520588e-01
7.623874e-01
7.426806e-01
7.213990e-01
7.313464e-01
7.140449e-01
6.996135e-01
6.995470e-01
6.757482e-01
6.733904e-01
6.575429e-01
6.385147e-01
6.388958e-01
6.024073e-01
6.106433e-01
5.714668e-01
5.680215e-01
5.427604e-01
5.308477e-01
4.662067e-01
5.055321e-01
5.344626e-01
3.514733e-01
1.777641e-01
6.837987e-02
2.063059e-02
6.154917e-03
1.004465e-03
3.159647e-04
6.210056e-05
7.520995e-01
7.624639e-01
7.427891e-01
7.214708e-01
7.313298e-01
7.139560e-01
6.995094e-01
6.994854e-01
6.757502e-01
6.734286e-01
6.575807e-01
6.385474e-01
6.389192e-01
6.023853e-01
6.105761e-01
5.714388e-01
5.680826e-01
5.428210e-01
5.308126e-01
4.661385e-01
5.055419e-01
5.345186e-01
3.514745e-01
1.777260e-01
6.838224e-02
2.065770e-02
6.150231e-03
9.851440e-04
3.096497e-04
7.101000e-05
7.520891e-01
7.623989e-01
7.426837e-01
7.214214e-01
7.313769e-01
7.140498e-01
6.995881e-01
6.995264e-01
6.757710e-01
6.734495e-01
6.575818e-01
6.384957e-01
6.388523e-01
6.023918e-01
6.106532e-01
5.714745e-01
5.680315e-01
5.427747e-01
5.308366e-01
4.661758e-01
5.055341e-01
5.344924e-01
3.514681e-01
1.777350e-01
6.839417e-02
2.066969e-02
6.151410e-03
9.605583e-04
2.846213e-04
1.012470e-04
7.520584e-01
7.624382e-01
7.427622e-01
7.214248e-01
7.312920e-01
7.139614e-01
6.995487e-01
6.995157e-01
6.757404e-01
6.733939e-01
6.575626e-01
6.385540e-01
6.389248e-01
6.023964e-01
6.106156e-01
5.714614e-01
5.680299e-01
5.427586e-01
5.308477e-01
4.662179e-01
5.055290e-01
5.344383e-01
3.514626e-01
1.777817e-01
6.840011e-02
2.064196e-02
6.156456e-03
9.693013e-04
2.755744e-04
1.066356e-04
7.520706e-01
7.623662e-01
7.426673e-01
7.214325e-01
7.313736e-01
7.139987e-01
6.995133e-01
6.994732e-01
6.757557e-01
6.734507e-01
6.575844e-01
6.385207e-01
6.389013e-01
6.024019e-01
6.105976e-01
5.714384e-01
5.680722e-01
5.428119e-01
5.308096e-01
4.661513e-01
5.055506e-01
5.344969e-01
3.514554e-01
1.777417e-01
6.840023e-02
2.066105e-02
6.149396e-03
9.692422e-04
3.046840e-04
8.363542e-05
7.519312e-01
7.623059e-01
7.425911e-01
7.212234e-01
7.311289e-01
7.138754e-01
6.995066e-01
6.994765e-01
6.757041e-01
6.733793e-01
6.575524e-01
6.385062e-01
6.388602e-01
6.023897e-01
6.106627e-01
5.714838e-01
5.680252e-01
5.427709e-01
5.308356e-01
4.661604e-01
5.055316e-01
5.345235e-01
3.514788e-01
1.776973e-01
6.837891e-02
2.069762e-02
6.150469e-03
9.571666e-04
3.231368e-04
6.867341e-05
7.515666e-01
7.618499e-01
7.422096e-01
7.210321e-01
7.309676e-01
7.135780e-01
6.991421e-01
6.991917e-01
6.755418e-01
6.732778e-01
6.574749e-01
6.384972e-01
6.389096e-01
6.023852e-01
6.105909e-01
5.714594e-01
5.680508e-01
5.427629e-01
5.308378e-01
4.662129e-01
5.055305e-01
5.344561e-01
3.514739e-01
1.777550e-01
6.838272e-02
2.065222e-02
6.152685e-03
9.880932e-04
3.038391e-04
7.455566e-05
7.507473e-01
7.610329e-01
7.411969e-01
7.197864e-01
7.297979e-01
7.127102e-01
6.984845e-01
6.986109e-01
6.750483e-01
6.729369e-01
6.572520e-01
6.382953e-01
6.387490e-01
6.023423e-01
6.105956e-01
5.714280e-01
5.680592e-01
5.428221e-01
5.308234e-01
4.661597e-01
5.055528e-01
5.344707e-01
3.514340e-01
1.777812e-01
6.842587e-02
2.060287e-02
6.133146e-03
1.026452e-03
2.963104e-04
8.205406e-05
7.491093e-01
7.593138e-01
7.396313e-01
7.183089e-01
7.280457e-01
7.106128e-01
6.963893e-01
6.968021e-01
6.735630e-01
6.717470e-01
6.564089e-01
6.378083e-01
6.384638e-01
6.021445e-01
6.105298e-01
5.714436e-01
5.680133e-01
5.427663e-01
5.308439e-01
4.661632e-01
5.055273e-01
5.345073e-01
3.514643e-01
1.777342e-01
6.840001e-02
2.064683e-02
6.149411e-03
9.885832e-04
3.025217e-04
8.330427e-05
7.478533e-01
7.577931e-01
7.374092e-01
7.155105e-01
7.251224e-01
7.076253e-01
6.930998e-01
6.933080e-01
6.702772e-01
6.689836e-01
6.542306e-01
6.362246e-01
6.374943e-01
6.016135e-01
6.101811e-01
5.712497e-01
5.679773e-01
5.427353e-01
5.308124e-01
4.662118e-01
5.055374e-01
5.344622e-01
3.514986e-01
1.777413e-01
6.833068e-02
2.069076e-02
6.208982e-03
9.261227e-04
2.753532e-04
8.895731e-05
7.490267e-01
7.589127e-01
7.383821e-01
7.155555e-01
7.234491e-01
7.043626e-01
6.888579e-01
6.883883e-01
6.648880e-01
6.636365e-01
6.495508e-01
6.325212e-01
6.347868e-01
5.998967e-01
6.092810e-01
5.707794e-01
5.677420e-01
5.426935e-01
5.307897e-01
4.661578e-01
5.055523e-01
5.344785e-01
3.514643e-01
1.777462e-01
6.836681e-02
2.068357e-02
6.180527e-03
9.329022e-04
2.708331e-04
1.006896e-04
7.519768e-01
7.616424e-01
7.406271e-01
7.178191e-01
7.256968e-01
7.053255e-01
6.873558e-01
6.843785e-01
6.589264e-01
6.563596e-01
6.418287e-01
6.254691e-01
6.291894e-01
5.958918e-01
6.067454e-01
5.694488e-01
5.670911e-01
5.423616e-01
5.306966e-01
4.661218e-01
5.055032e-01
5.345168e-01
3.514649e-01
1.777008e-01
6.843998e-02
2.068226e-02
6.072890e-03
9.769103e-04
3.421490e-04
1.033156e-04
7.558321e-01
7.656239e-01
7.444513e-01
7.204427e-01
7.272394e-01
7.069533e-01
6.890655e-01
6.845761e-01
6.561966e-01
6.504356e-01
6.333120e-01
6.155552e-01
6.195741e-01
5.880642e-01
6.012042e-01
5.659922e-01
5.652906e-01
5.415435e-01
5.303248e-01
4.660196e-01
5.054834e-01
5.344688e-01
3.514665e-01
1.777378e-01
6.843215e-02
2.063981e-02
6.080011e-03
1.018885e-03
3.615587e-04
8.226421e-05
7.597799e-01
7.699556e-01
7.488644e-01
7.250129e-01
7.307559e-01
7.081300e-01
6.888176e-01
6.845987e-01
6.561939e-01
6.484005e-01
6.276254e-01
6.061056e-01
6.076409e-01
5.759126e-01
5.911188e-01
5.589622e-01
5.610455e-01
5.394091e-01
5.294173e-01
4.656252e-01
5.053717e-01
5.344339e-01
3.514283e-01
1.777951e-01
6.840262e-02
2.057374e-02
6.193873e-03
1.040060e-03
2.543323e-04
4.862399e-05
7.676240e-01
7.779300e-01
7.561747e-01
7.309197e-01
7.358917e-01
7.124919e-01
6.905316e-01
6.831111e-01
6.537296e-01
6.466566e-01
6.252885e-01
6.004358e-01
5.973274e-01
5.620630e-01
5.765842e-01
5.468219e-01
5.527678e-01
5.346206e-01
5.271025e-01
4.646936e-01
5.049989e-01
5.343336e-01
3.514379e-01
1.777480e-01
6.835354e-02
2.064378e-02
6.233551e-03
9.502784e-04
2.150302e-04
6.538381e-05
7.779136e-01
7.899801e-01
7.677118e-01
7.403481e-01
7.422571e-01
7.167355e-01
6.942445e-01
6.849832e-01
6.516114e-01
6.419161e-01
6.211157e-01
5.969618e-01
5.912026e-01
5.506209e-01
5.606661e-01
5.299989e-01
5.389431e-01
5.255746e-01
5.221369e-01
4.624251e-01
5.041814e-01
5.340287e-01
3.513500e-01
1.776959e-01
6.832556e-02
2.076402e-02
6.186836e-03
8.333405e-04
3.435410e-04
1.458470e-04
7.953576e-01
8.071770e-01
7.823361e-01
7.518071e-01
7.502748e-01
7.204882e-01
6.948352e-01
6.855358e-01
6.520287e-01
6.388058e-01
6.142522e-01
5.902165e-01
5.861485e-01
5.435358e-01
5.475833e-01
5.117258e-01
5.200872e-01
5.107082e-01
5.129503e-01
4.577362e-01
5.022171e-01
5.333726e-01
3.510548e-01
1.776338e-01
6.844179e-02
2.070453e-02
6.085333e-03
9.362126e-04
3.756472e-04
1.286385e-04
8.357336e-01
8.393629e-01
8.040891e-01
7.661671e-01
7.604932e-01
7.274095e-01
6.964073e-01
6.819698e-01
6.481581e-01
6.365146e-01
6.094750e-01
5.811450e-01
5.770550e-01
5.369643e-01
5.391056e-01
4.962875e-01
4.991978e-01
4.902619e-01
4.978781e-01
4.492276e-01
4.982165e-01
5.317657e-01
3.505895e-01
1.775012e-01
6.845951e-02
2.057228e-02
6.004297e-03
1.165131e-03
2.523959e-04
7.248246e-07
9.085455e-01
8.786525e-01
8.245187e-01
7.767006e-01
7.645700e-01
7.301995e-01
7.001107e-01
6.819024e-01
6.412271e-01
6.282829e-01
6.041334e-01
5.741526e-01
5.655405e-01
5.258873e-01
5.312993e-01
4.858701e-01
4.805299e-01
4.666343e-01
4.767512e-01
4.351890e-01
4.909927e-01
5.285653e-01
3.495588e-01
1.773163e-01
6.816315e-02
2.055941e-02
6.174085e-03
1.109803e-03
2.546753e-04
-7.519290e-06
9.566501e-01
8.942463e-01
8.313866e-01
7.777288e-01
7.603671e-01
7.201657e-01
6.904252e-01
6.785325e-01
6.383206e-01
6.182651e-01
5.921637e-01
5.660860e-01
5.559630e-01
5.117779e-01
5.189043e-01
4.771728e-01
4.671176e-01
4.438137e-01
4.511047e-01
4.149073e-01
4.788433e-01
5.230892e-01
3.474912e-01
1.766746e-01
6.787589e-02
2.055414e-02
6.391914e-03
7.849758e-04
3.520390e-04
1.247424e-04
8.959320e-01
8.710626e-01
8.143793e-01
7.608142e-01
7.458482e-01
7.054207e-01
6.695756e-01
6.569998e-01
6.265834e-01
6.112426e-01
5.786821e-01
5.513421e-01
5.457428e-01
4.992988e-01
5.023186e-01
4.646626e-01
4.571051e-01
4.258557e-01
4.240128e-01
3.887823e-01
4.608473e-01
5.140136e-01
3.439633e-01
1.750768e-01
6.766659e-02
2.053609e-02
6.190709e-03
8.194194e-04
3.895538e-04
1.807071e-04
8.586122e-01
8.332471e-01
7.805183e-01
7.292085e-01
7.131373e-01
6.779546e-01
6.460951e-01
6.281823e-01
5.954487e-01
5.925263e-01
5.665759e-01
5.342275e-01
5.290255e-01
4.876841e-01
4.862018e-01
4.467580e-01
4.453600e-01
4.131237e-01
3.998216e-01
3.583411e-01
4.369841e-01
5.001710e-01
3.378081e-01
1.726432e-01
6.713019e-02
2.052358e-02
5.795573e-03
1.209124e-03
2.808281e-04
-7.246685e-06
8.192892e-01
7.919303e-01
7.386463e-01
6.919415e-01
6.759093e-01
6.388926e-01
6.104601e-01
5.998939e-01
5.602925e-01
5.554780e-01
5.424759e-01
5.174099e-01
5.078725e-01
4.707631e-01
4.726416e-01
4.267762e-01
4.284499e-01
4.018620e-01
3.812848e-01
3.270535e-01
4.074447e-01
4.809601e-01
3.279264e-01
1.692906e-01
6.607744e-02
2.007686e-02
5.780975e-03
1.231514e-03
1.185279e-04
-4.284346e-05
7.555912e-01
7.387105e-01
6.851627e-01
6.396891e-01
6.285289e-01
5.966060e-01
5.661459e-01
5.600442e-01
5.287568e-01
5.161954e-01
5.022384e-01
4.899274e-01
4.860105e-01
4.464269e-01
4.573307e-01
4.086427e-01
4.073726e-01
3.872800e-01
3.678318e-01
2.988351e-01
3.734130e-01
4.558870e-01
3.141475e-01
1.641576e-01
6.426802e-02
1.917472e-02
6.129332e-03
8.970931e-04
1.012935e-04
3.040817e-04
7.094445e-01
6.745358e-01
6.303669e-01
5.798622e-01
5.721092e-01
5.389190e-01
5.208546e-01
5.096662e-01
4.877325e-01
4.806762e-01
4.615575e-01
4.479742e-01
4.578823e-01
4.166826e-01
4.350888e-01
3.911947e-01
3.860828e-01
3.672512e-01
3.558181e-01
2.765185e-01
3.368150e-01
4.253315e-01
2.960996e-01
1.565393e-01
6.125771e-02
1.848006e-02
6.118089e-03
5.924207e-04
1.845351e-04
4.812182e-04
6.319480e-01
5.980481e-01
5.590403e-01
5.112945e-01
5.187213e-01
4.781953e-01
4.657163e-01
4.614831e-01
4.378644e-01
4.376949e-01
4.251980e-01
4.037184e-01
4.210993e-01
3.823739e-01
4.031469e-01
3.697362e-01
3.651098e-01
3.445680e-01
3.401973e-01
2.609830e-01
2.999942e-01
3.901927e-01
2.733463e-01
1.459899e-01
5.715312e-02
1.775494e-02
5.499800e-03
4.749890e-04
5.041764e-04
9.053654e-05
5.465319e-01
5.218980e-01
4.729564e-01
4.308500e-01
4.415534e-01
4.224763e-01
4.028194e-01
4.079235e-01
3.892392e-01
3.884019e-01
3.846432e-01
3.623140e-01
3.798833e-01
3.476400e-01
3.632066e-01
3.399627e-01
3.400211e-01
3.215448e-01
3.192927e-01
2.493166e-01
2.664898e-01
3.504385e-01
2.465194e-01
1.319051e-01
5.236985e-02
1.605367e-02
4.990552e-03
4.185697e-04
8.162710e-04
-5.518262e-04
4.437852e-01
4.250786e-01
3.779567e-01
3.530049e-01
3.561119e-01
3.510607e-01
3.463398e-01
3.470671e-01
3.405128e-01
3.380044e-01
3.400947e-01
3.217122e-01
3.351962e-01
3.130247e-01
3.239109e-01
3.029575e-01
3.070548e-01
2.946097e-01
2.941245e-01
2.369771e-01
2.388546e-01
3.064010e-01
2.162141e-01
1.143222e-01
4.657449e-02
1.343452e-02
4.768090e-03
2.156929e-04
7.554607e-04
-6.699386e-04
3.252662e-01
2.909691e-01
2.648445e-01
2.595991e-01
2.867900e-01
2.768545e-01
2.895507e-01
2.881140e-01
2.897991e-01
2.893780e-01
2.918060e-01
2.831341e-01
2.889038e-01
2.754235e-01
2.859390e-01
2.660333e-01
2.700922e-01
2.599217e-01
2.624149e-01
2.207001e-01
2.160330e-01
2.598884e-01
1.819952e-01
9.421483e-02
3.896997e-02
1.073307e-02
4.150732e-03
1.069671e-04
4.862523e-04
-2.116156e-04
1.241811e-01
1.285692e-01
1.585773e-01
1.671841e-01
2.020313e-01
2.093545e-01
2.269061e-01
2.349274e-01
2.361363e-01
2.452439e-01
2.399024e-01
2.462634e-01
2.427542e-01
2.368866e-01
2.468517e-01
2.285584e-01
2.342870e-01
2.233408e-01
2.228878e-01
1.959906e-01
1.937717e-01
2.124853e-01
1.432607e-01
7.251132e-02
2.926441e-02
8.223060e-03
2.908846e-03
2.338238e-04
2.066551e-04
3.487830e-05
-1.736646e-01
-8.165075e-02
4.346390e-02
7.742615e-02
1.301741e-01
1.534882e-01
1.682726e-01
1.849595e-01
1.863930e-01
2.006983e-01
1.921846e-01
2.063342e-01
1.993894e-01
1.970585e-01
2.092431e-01
1.889725e-01
1.987426e-01
1.872138e-01
1.819792e-01
1.653252e-01
1.654359e-01
1.609814e-01
9.960068e-02
4.925269e-02
1.830027e-02
5.491962e-03
1.629201e-03
1.877412e-04
1.470444e-04
-2.768582e-05
SCALARS Mises double 1
LOOKUP_TABLE stheta
1.001011e+00
1.080506e+00
1.070492e+00
1.064328e+00
1.059858e+00
1.067256e+00
1.021547e+00
1.080439e+00
1.039344e+00
1.057831e+00
1.067330e+00
1.056033e+00
1.111143e+00
1.098609e+00
1.233101e+00
1.188986e+00
1.278005e+00
1.278405e+00
1.341913e+00
1.272914e+00
1.505032e+00
1.624122e+00
1.024659e+00
4.955577e-01
1.829499e-01
5.255092e-02
1.554560e-02
1.968956e-03
1.892277e-03
1.514236e-03
1.041794e+00
1.047510e+00
1.052526e+00
1.058146e+00
1.061110e+00
1.037335e+00
1.053911e+00
1.067877e+00
1.049849e+00
1.090108e+00
1.068448e+00
1.102729e+00
1.156104e+00
1.116066e+00
1.207030e+00
1.194195e+00
1.263761e+00
1.261870e+00
1.385094e+00
1.312690e+00
1.395742e+00
1.400688e+00
8.666829e-01
4.213961e-01
1.568462e-01
4.572176e-02
1.388769e-02
1.628646e-03
2.253663e-03
2.200855e-03
1.007533e+00
1.063789e+00
1.056036e+00
1.033554e+00
1.064181e+00
1.049034e+00
1.036881e+00
1.083073e+00
1.060100e+00
1.084227e+00
1.102801e+00
1.119043e+00
1.162410e+00
1.137496e+00
1.224357e+00
1.168393e+00
1.267277e+00
1.329082e+00
1.391525e+00
1.154861e+00
1.164473e+00
1.252980e+00
8.163067e-01
4.160557e-01
1.591155e-01
4.848031e-02
1.439322e-02
1.836758e-03
1.680766e-03
5.452408e-04
1.022756e+00
1.068495e+00
1.054554e+00
1.052262e+00
1.057221e+00
1.031552e+00
1.058680e+00
1.078060e+00
1.058545e+00
1.107415e+00
1.103116e+00
1.121311e+00
1.188034e+00
1.145870e+00
1.207429e+00
1.208607e+00
1.335951e+00
1.290436e+00
1.206554e+00
9.389115e-01
1.032400e+00
1.210822e+00
8.217508e-01
4.267981e-01
1.661217e-01
5.076356e-02
1.526659e-02
2.658415e-03
9.438805e-04
7.709909e-04
1.011277e+00
1.081812e+00
1.043068e+00
1.035380e+00
1.039069e+00
1.045681e+00
1.054934e+00
1.082083e+00
1.064440e+00
1.095872e+00
1.121005e+00
1.136460e+00
1.173179e+00
1.146218e+00
1.271719e+00
1.270221e+00
1.250118e+00
1.093227e+00
1.015212e+00
8.315669e-01
9.964513e-01
1.215313e+00
8.406438e-01
4.385526e-01
1.733074e-01
5.194017e-02
1.674957e-02
2.678272e-03
1.567673e-03
1.281853e-03
1.041911e+00
1.066845e+00
1.056131e+00
1.010223e+00
1.045510e+00
1.058843e+00
1.054499e+00
1.071079e+00
1.056686e+00
1.117806e+00
1.124333e+00
1.102668e+00
1.196028e+00
1.224252e+00
1.301823e+00
1.153141e+00
1.046532e+00
9.349788e-01
9.315404e-01
8.061181e-01
9.963347e-01
1.233991e+00
8.585276e-01
4.496865e-01
1.779770e-01
5.369470e-02
1.731622e-02
1.912540e-03
1.257674e-03
4.903681e-04
1.018352e+00
1.075302e+00
1.034445e+00
1.002772e+00
1.067083e+00
1.054190e+00
1.027957e+00
1.072110e+00
1.079251e+00
1.103123e+00
1.088531e+00
1.143507e+00
1.280254e+00
1.211406e+00
1.159009e+00
9.598714e-01
9.137600e-01
8.789812e-01
9.145557e-01
8.061411e-01
1.007868e+00
1.254258e+00
8.746593e-01
4.583566e-01
1.812222e-01
5.548549e-02
1.679536e-02
3.010700e-03
9.510812e-04
1.233171e-03
1.037209e+00
1.064792e+00
1.038089e+00
1.015013e+00
1.053541e+00
1.028514e+00
1.032706e+00
1.088703e+00
1.050001e+00
1.075670e+00
1.142828e+00
1.215988e+00
1.232695e+00
1.047177e+00
9.855072e-01
8.518376e-01
8.764592e-01
8.731953e-01
9.162018e-01
8.125932e-01
1.024203e+00
1.272950e+00
8.887537e-01
4.639775e-01
1.843646e-01
5.616499e-02
1.642320e-02
3.463681e-03
1.084818e-03
1.119719e-03
1.024293e+00
1.067243e+00
1.040945e+00
9.944445e-01
1.040472e+00
1.033119e+00
1.034445e+00
1.057556e+00
1.036721e+00
1.131362e+00
1.189449e+00
1.141690e+00
1.064551e+00
8.939997e-01
9.024855e-01
8.266555e-01
8.777626e-01
8.788911e-01
9.208522e-01
8.229432e-01
1.041714e+00
1.290062e+00
8.990341e-01
4.682560e-01
1.865459e-01
5.618727e-02
1.746762e-02
2.489700e-03
7.337264e-04
1.123344e-03
1.041399e+00
1.075252e+00
1.025082e+00
9.867322e-01
1.037310e+00
1.020226e+00
1.009256e+00
1.057474e+00
1.079314e+00
1.144228e+00
1.097584e+00
9.864167e-01
9.365016e-01
8.314128e-01
8.873656e-01
8.301032e-01
8.861524e-01
8.844392e-01
9.279987e-01
8.352124e-01
1.059072e+00
1.304455e+00
9.055671e-01
4.720970e-01
1.871048e-01
5.618005e-02
1.840183e-02
2.276315e-03
1.314369e-03
1.259859e-03
1.031115e+00
1.048459e+00
1.010417e+00
9.700714e-01
1.019417e+00
1.003428e+00
1.011941e+00
1.076865e+00
1.060757e+00
1.051244e+00
9.665276e-01
8.872973e-01
8.915942e-01
8.224594e-01
8.918878e-01
8.378891e-01
8.930811e-01
8.896135e-01
9.379619e-01
8.478685e-01
1.075075e+00
1.314786e+00
9.100494e-01
4.746089e-01
1.873519e-01
5.647216e-02
1.773436e-02
2.433275e-03
1.371897e-03
3.323039e-04
1.041909e+00
1.033969e+00
9.837360e-01
9.488483e-01
1.008413e+00
9.987993e-01
1.008895e+00
1.043828e+00
9.794727e-01
9.530148e-01
8.953553e-01
8.571426e-01
8.866228e-01
8.258164e-01
8.981394e-01
8.445140e-01
8.977080e-01
8.962365e-01
9.493265e-01
8.603392e-01
1.087682e+00
1.321608e+00
9.132501e-01
4.753878e-01
1.879491e-01
5.703428e-02
1.722258e-02
2.731026e-03
8.420821e-04
4.349410e-04
1.016357e+00
1.020532e+00
9.775325e-01
9.465243e-01
1.007064e+00
9.888565e-01
9.812913e-01
9.870001e-01
9.123862e-01
9.062118e-01
8.762458e-01
8.535681e-01
8.882415e-01
8.289569e-01
9.032602e-01
8.485782e-01
9.020853e-01
9.041751e-01
9.608475e-01
8.712300e-01
1.096101e+00
1.326063e+00
9.151780e-01
4.755177e-01
1.881735e-01
5.716342e-02
1.741607e-02
3.084080e-03
1.134660e-03
5.443516e-04
9.706577e-01
1.027434e+00
9.882925e-01
9.494598e-01
1.004498e+00
9.741662e-01
9.472162e-01
9.433802e-01
8.809046e-01
8.923936e-01
8.719646e-01
8.514897e-01
8.885485e-01
8.313288e-01
9.061308e-01
8.511784e-01
9.072132e-01
9.123830e-01
9.712273e-01
8.791003e-01
1.101199e+00
1.328673e+00
9.160854e-01
4.758632e-01
1.881014e-01
5.696193e-02
1.744804e-02
2.736736e-03
1.069973e-03
4.847185e-04
9.304114e-01
9.970078e-01
9.675040e-01
9.332448e-01
9.892234e-01
9.481972e-01
9.127697e-01
9.173125e-01
8.673045e-01
8.845880e-01
8.662822e-01
8.475780e-01
8.884423e-01
8.322306e-01
9.070706e-01
8.534935e-01
9.124871e-01
9.199050e-01
9.790469e-01
8.838120e-01
1.104188e+00
1.329912e+00
9.163427e-01
4.762348e-01
1.881372e-01
5.693748e-02
1.760853e-02
2.544678e-03
9.622957e-04
7.635746e-04
8.970940e-01
9.659424e-01
9.430155e-01
9.138442e-01
9.632782e-01
9.172889e-01
8.867454e-01
9.003147e-01
8.545779e-01
8.737868e-01
8.592935e-01
8.443191e-01
8.873841e-01
8.308680e-01
9.069807e-01
8.553742e-01
9.171672e-01
9.257474e-01
9.837085e-01
8.863238e-01
1.105837e+00
1.330348e+00
9.164173e-01
4.763699e-01
1.881043e-01
5.691951e-02
1.776222e-02
2.708302e-03
1.072349e-03
6.968994e-04
8.789719e-01
9.394055e-01
9.178853e-01
8.861736e-01
9.293740e-01
8.865368e-01
8.621165e-01
8.808542e-01
8.396046e-01
8.638597e-01
8.542233e-01
8.408048e-01
8.838637e-01
8.274931e-01
9.059882e-01
8.566992e-01
9.207764e-01
9.291327e-01
9.860144e-01
8.876588e-01
1.106436e+00
1.330520e+00
9.165931e-01
4.762926e-01
1.880866e-01
5.691858e-02
1.757872e-02
2.658514e-03
1.065930e-03
4.516905e-04
8.566456e-01
9.164246e-01
8.935531e-01
8.544132e-01
8.942282e-01
8.569437e-01
8.391413e-01
8.647397e-01
8.290875e-01
8.569006e-01
8.481430e-01
8.336876e-01
8.776538e-01
8.226165e-01
9.045218e-01
8.577208e-01
9.226951e-01
9.306103e-01
9.872426e-01
8.881408e-01
1.106501e+00
1.330741e+00
9.166361e-01
4.761671e-01
1.882418e-01
5.697898e-02
1.744497e-02
2.702738e-03
1.055610e-03
4.477028e-04
8.407832e-01
8.980869e-01
8.650066e-01
8.188136e-01
8.623821e-01
8.350607e-01
8.238865e-01
8.537710e-01
8.197724e-01
8.468387e-01
8.374524e-01
8.232204e-01
8.700577e-01
8.178044e-01
9.033604e-01
8.578993e-01
9.232727e-01
9.314000e-01
9.877178e-01
8.881557e-01
1.106672e+00
1.330810e+00
9.165079e-01
4.762130e-01
1.882867e-01
5.692942e-02
1.753119e-02
2.796307e-03
1.002939e-03
5.365675e-04
8.194217e-01
8.691726e-01
8.312599e-01
7.907051e-01
8.431306e-01
8.210128e-01
8.110662e-01
8.403180e-01
8.047887e-01
8.313927e-01
8.240183e-01
8.123129e-01
8.636607e-01
8.146110e-01
9.022626e-01
8.575753e-01
9.235929e-01
9.316151e-01
9.876629e-01
8.883026e-01
1.106798e+00
1.330675e+00
9.165611e-01
4.763076e-01
1.881308e-01
5.692061e-02
1.763044e-02
2.705654e-03
9.675120e-04
6.159902e-04
8.021550e-01
8.459531e-01
8.086571e-01
7.721495e-01
8.253604e-01
8.025208e-01
7.906258e-01
8.196171e-01
7.855417e-01
8.151673e-01
8.121129e-01
8.043953e-01
8.596715e-01
8.124470e-01
9.014952e-01
8.576353e-01
9.236661e-01
9.314840e-01
9.877512e-01
8.883838e-01
1.106649e+00
1.330697e+00
9.166951e-01
4.762411e-01
1.880902e-01
5.701340e-02
1.758822e-02
2.621185e-03
1.053011e-03
5.873943e-04
7.687014e-01
8.098743e-01
7.772100e-01
7.433599e-01
7.973967e-01
7.765808e-01
7.667198e-01
7.996989e-01
7.697567e-01
8.037267e-01
8.050046e-01
8.000760e-01
8.573044e-01
8.113241e-01
9.012789e-01
8.574788e-01
9.235341e-01
9.316552e-01
9.878724e-01
8.882407e-01
1.106640e+00
1.330792e+00
9.165989e-01
4.762020e-01
1.882189e-01
5.699047e-02
1.750476e-02
2.673004e-03
1.096444e-03
5.001047e-04
7.255833e-01
7.740331e-01
7.473759e-01
7.168581e-01
7.738902e-01
7.570576e-01
7.505244e-01
7.873176e-01
7.608433e-01
7.978256e-01
8.013463e-01
7.979000e-01
8.565077e-01
8.111193e-01
9.010196e-01
8.572680e-01
9.236045e-01
9.316759e-01
9.877522e-01
8.883082e-01
1.106792e+00
1.330711e+00
9.165063e-01
4.762832e-01
1.882286e-01
5.690154e-02
1.755361e-02
2.735661e-03
1.005142e-03
4.969150e-04
7.022916e-01
7.550343e-01
7.309056e-01
7.020769e-01
7.609906e-01
7.465451e-01
7.422388e-01
7.814863e-01
7.569035e-01
7.952777e-01
7.999528e-01
7.972858e-01
8.561570e-01
8.107863e-01
9.010039e-01
8.574861e-01
9.235995e-01
9.314840e-01
9.877434e-01
8.883928e-01
1.106729e+00
1.330699e+00
9.166254e-01
4.762749e-01
1.881148e-01
5.692565e-02
1.762549e-02
2.719559e-03
9.699836e-04
5.569939e-04
6.906966e-01
7.460447e-01
7.231014e-01
6.952456e-01
7.553776e-01
7.422878e-01
7.390153e-01
7.791955e-01
7.554200e-01
7.945584e-01
7.996826e-01
7.970424e-01
8.559517e-01
8.107857e-01
9.010491e-01
8.573779e-01
9.235507e-01
9.316473e-01
9.878296e-01
8.882414e-01
1.106633e+00
1.330790e+00
9.166665e-01
4.762158e-01
1.881364e-01
5.697972e-02
1.756375e-02
2.682187e-03
1.041546e-03
5.789921e-04
6.874413e-01
7.435685e-01
7.208664e-01
6.932432e-01
7.536907e-01
7.409664e-01
7.381050e-01
7.786739e-01
7.550788e-01
7.941736e-01
7.992958e-01
7.969346e-01
8.561445e-01
8.109073e-01
9.009296e-01
8.572762e-01
9.236068e-01
9.316797e-01
9.877872e-01
8.882837e-01
1.106724e+00
1.330721e+00
9.165448e-01
4.762561e-01
1.882413e-01
5.696089e-02
1.750134e-02
2.689257e-03
1.080272e-03
5.478192e-04
6.863925e-01
7.427003e-01
7.200389e-01
6.925250e-01
7.531200e-01
7.405416e-01
7.377443e-01
7.783858e-01
7.549209e-01
7.942265e-01
7.994790e-01
7.969672e-01
8.559171e-01
8.107215e-01
9.010558e-01
8.574897e-01
9.235711e-01
9.314978e-01
9.877659e-01
8.884081e-01
1.106758e+00
1.330674e+00
9.165426e-01
4.762703e-01
1.881986e-01
5.694634e-02
1.757190e-02
2.702130e-03
1.016937e-03
5.179253e-04
6.860618e-01
7.425010e-01
7.199212e-01
6.924583e-01
7.530980e-01
7.405342e-01
7.377600e-01
7.784020e-01
7.549116e-01
7.941669e-01
7.993781e-01
7.969227e-01
8.560046e-01
8.108174e-01
9.009922e-01
8.573536e-01
9.235852e-01
9.316422e-01
9.877980e-01
8.882702e-01
1.106678e+00
1.330783e+00
9.166484e-01
4.762145e-01
1.881031e-01
5.696294e-02
1.763092e-02
2.697647e-03
9.764187e-04
5.261098e-04
6.861981e-01
7.425731e-01
7.199014e-01
6.923624e-01
7.529637e-01
7.404489e-01
7.377585e-01
7.784652e-01
7.549664e-01
7.941481e-01
7.993305e-01
7.969409e-01
8.560760e-01
8.108407e-01
9.009375e-01
8.573041e-01
9.235998e-01
9.316744e-01
9.877961e-01
8.882551e-01
1.106684e+00
1.330763e+00
9.166262e-01
4.762441e-01
1.881576e-01
5.694728e-02
1.755336e-02
2.698778e-03
1.045618e-03
5.540169e-04
6.860116e-01
7.424293e-01
7.198528e-01
6.924303e-01
7.530872e-01
7.404877e-01
7.376457e-01
7.782827e-01
7.548754e-01
7.942598e-01
7.995282e-01
7.969739e-01
8.559055e-01
8.107299e-01
9.010621e-01
8.574665e-01
9.235487e-01
9.315060e-01
9.877768e-01
8.883933e-01
1.106742e+00
1.330667e+00
9.165446e-01
4.762987e-01
1.882451e-01
5.693142e-02
1.748838e-02
2.704597e-03
1.088108e-03
5.685830e-04
6.861303e-01
7.425496e-01
7.198945e-01
6.923422e-01
7.529530e-01
7.404843e-01
7.378423e-01
7.785282e-01
7.549551e-01
7.940778e-01
7.992684e-01
7.969372e-01
8.561133e-01
8.108721e-01
9.009580e-01
8.573273e-01
9.235945e-01
9.316286e-01
9.877737e-01
8.882984e-01
1.106714e+00
1.330744e+00
9.165837e-01
4.762436e-01
1.881871e-01
5.696170e-02
1.756990e-02
2.694292e-03
1.014009e-03
5.486765e-04
6.861357e-01
7.425062e-01
7.198915e-01
6.924452e-01
7.530645e-01
7.404232e-01
7.375751e-01
7.782661e-01
7.549089e-01
7.942675e-01
7.994719e-01
7.969343e-01
8.559661e-01
8.108057e-01
9.010065e-01
8.573532e-01
9.235856e-01
9.316608e-01
9.878010e-01
8.882468e-01
1.106671e+00
1.330784e+00
9.166451e-01
4.762084e-01
1.881035e-01
5.697560e-02
1.765209e-02
2.683135e-03
9.365688e-04
5.229489e-04
6.860065e-01
7.424642e-01
7.198571e-01
6.923646e-01
7.530339e-01
7.405819e-01
7.378803e-01
7.784698e-01
7.548721e-01
7.940945e-01
7.993825e-01
7.969729e-01
8.559733e-01
8.107400e-01
9.010311e-01
8.574697e-01
9.235777e-01
9.315258e-01
9.877833e-01
8.883763e-01
1.106721e+00
1.330687e+00
9.165910e-01
4.762666e-01
1.881577e-01
5.694972e-02
1.757754e-02
2.685700e-03
1.034987e-03
5.234554e-04
6.863959e-01
7.427171e-01
7.200497e-01
6.925077e-01
7.530383e-01
7.403940e-01
7.376432e-01
7.784310e-01
7.550401e-01
7.942269e-01
7.993177e-01
7.968810e-01
8.560756e-01
8.108802e-01
9.009426e-01
8.573004e-01
9.236104e-01
9.316522e-01
9.877742e-01
8.883137e-01
1.106738e+00
1.330720e+00
9.165457e-01
4.762609e-01
1.882415e-01
5.695122e-02
1.746531e-02
2.700101e-03
1.154566e-03
5.449649e-04
6.863543e-01
7.427645e-01
7.201991e-01
6.927922e-01
7.534669e-01
7.409264e-01
7.380148e-01
7.784454e-01
7.548722e-01
7.942338e-01
7.995630e-01
7.970229e-01
8.559283e-01
8.107444e-01
9.010287e-01
8.573727e-01
9.235491e-01
9.316518e-01
9.878307e-01
8.882533e-01
1.106669e+00
1.330788e+00
9.166117e-01
4.762151e-01
1.881990e-01
5.696014e-02
1.751300e-02
2.722758e-03
1.093694e-03
5.555325e-04
6.881413e-01
7.441123e-01
7.213265e-01
6.936359e-01
7.539800e-01
7.412989e-01
7.385148e-01
7.791603e-01
7.554955e-01
7.943920e-01
7.994001e-01
7.969915e-01
8.561038e-01
8.108083e-01
9.009816e-01
8.574425e-01
9.235911e-01
9.315101e-01
9.877640e-01
8.883769e-01
1.106718e+00
1.330698e+00
9.166200e-01
4.762794e-01
1.881253e-01
5.691069e-02
1.765403e-02
2.731754e-03
8.982263e-04
5.466253e-04
6.908093e-01
7.465338e-01
7.239268e-01
6.965587e-01
7.568261e-01
7.438626e-01
7.403160e-01
7.801858e-01
7.562517e-01
7.951897e-01
8.000733e-01
7.972278e-01
8.561383e-01
8.109445e-01
9.010142e-01
8.572903e-01
9.235926e-01
9.316468e-01
9.877348e-01
8.883149e-01
1.106780e+00
1.330702e+00
9.165491e-01
4.763082e-01
1.881527e-01
5.690428e-02
1.765814e-02
2.694043e-03
8.982252e-04
5.665396e-04
6.972855e-01
7.515786e-01
7.284299e-01
7.010940e-01
7.614795e-01
7.488279e-01
7.453101e-01
7.846173e-01
7.595729e-01
7.971291e-01
8.013001e-01
7.981096e-01
8.565432e-01
8.109664e-01
9.011245e-01
8.574555e-01
9.235407e-01
9.316274e-01
9.878543e-01
8.882546e-01
1.106640e+00
1.330785e+00
9.166281e-01
4.761998e-01
1.881691e-01
5.702677e-02
1.752096e-02
2.626441e-03
1.151715e-03
5.768954e-04
7.029020e-01
7.574774e-01
7.349274e-01
7.088530e-01
7.700238e-01
7.577728e-01
7.540571e-01
7.926412e-01
7.668703e-01
8.028759e-01
8.051736e-01
8.002462e-01
8.578469e-01
8.117167e-01
9.012974e-01
8.575494e-01
9.236837e-01
9.315316e-01
9.877685e-01
8.883768e-01
1.106639e+00
1.330703e+00
9.167049e-01
4.761940e-01
1.881266e-01
5.706647e-02
1.747288e-02
2.641357e-03
1.253442e-03
5.471829e-04
6.998006e-01
7.559041e-01
7.339366e-01
7.108733e-01
7.770099e-01
7.685739e-01
7.677134e-01
8.069269e-01
7.802872e-01
8.139317e-01
8.139847e-01
8.061947e-01
8.611196e-01
8.134141e-01
9.021204e-01
8.576977e-01
9.236808e-01
9.317086e-01
9.877428e-01
8.882706e-01
1.106782e+00
1.330734e+00
9.165316e-01
4.762679e-01
1.882208e-01
5.690379e-02
1.754785e-02
2.796755e-03
9.732828e-04
4.842131e-04
6.879411e-01
7.479371e-01
7.281546e-01
7.068872e-01
7.775452e-01
7.732678e-01
7.786770e-01
8.229036e-01
7.993681e-01
8.325127e-01
8.298338e-01
8.178916e-01
8.687596e-01
8.175151e-01
9.038928e-01
8.585595e-01
9.238226e-01
9.316642e-01
9.878889e-01
8.882000e-01
1.106686e+00
1.330862e+00
9.164528e-01
4.762034e-01
1.883517e-01
5.683881e-02
1.757625e-02
2.830518e-03
7.901924e-04
5.154705e-04
6.703672e-01
7.311106e-01
7.160416e-01
7.017079e-01
7.795360e-01
7.781334e-01
7.881841e-01
8.369784e-01
8.180875e-01
8.546815e-01
8.527572e-01
8.374405e-01
8.828305e-01
8.263952e-01
9.079881e-01
8.600789e-01
9.243651e-01
9.316157e-01
9.876709e-01
8.883289e-01
1.106700e+00
1.330664e+00
9.165836e-01
4.762553e-01
1.881950e-01
5.697008e-02
1.758221e-02
2.620105e-03
1.057590e-03
6.696933e-04
6.515962e-01
7.082789e-01
6.955218e-01
6.913257e-01
7.830762e-01
7.888266e-01
8.054811e-01
8.571084e-01
8.398421e-01
8.785584e-01
8.785668e-01
8.633338e-01
9.046417e-01
8.416989e-01
9.161292e-01
8.633786e-01
9.248826e-01
9.315680e-01
9.873631e-01
8.880698e-01
1.106822e+00
1.330496e+00
9.165486e-01
4.764882e-01
1.879823e-01
5.696390e-02
1.765931e-02
2.470136e-03
1.367758e-03
5.993360e-04
6.181295e-01
6.735352e-01
6.639584e-01
6.755106e-01
7.875000e-01
8.032371e-01
8.312679e-01
8.887998e-01
8.728146e-01
9.101539e-01
9.084765e-01
8.925740e-01
9.322326e-01
8.645830e-01
9.298112e-01
8.698368e-01
9.259888e-01
9.306155e-01
9.867054e-01
8.874582e-01
1.106371e+00
1.330576e+00
9.165756e-01
4.763633e-01
1.880540e-01
5.686749e-02
1.761039e-02
2.761004e-03
1.189804e-03
4.460859e-04
5.717897e-01
6.266543e-01
6.281739e-01
6.649284e-01
8.045255e-01
8.309196e-01
8.688200e-01
9.316458e-01
9.186163e-01
9.548187e-01
9.486452e-01
9.280221e-01
9.638878e-01
8.930493e-01
9.504915e-01
8.809850e-01
9.283282e-01
9.287415e-01
9.843451e-01
8.859510e-01
1.105508e+00
1.330316e+00
9.167970e-01
4.759367e-01
1.881157e-01
5.704178e-02
1.740300e-02
3.068646e-03
8.030899e-04
4.980166e-04
4.978184e-01
5.833175e-01
6.206498e-01
6.919116e-01
8.560197e-01
8.895578e-01
9.338991e-01
9.950799e-01
9.787915e-01
1.012233e+00
1.001523e+00
9.737122e-01
1.002361e+00
9.259058e-01
9.768400e-01
8.987322e-01
9.333136e-01
9.260340e-01
9.796064e-01
8.816713e-01
1.103959e+00
1.329623e+00
9.163895e-01
4.758017e-01
1.880916e-01
5.720218e-02
1.743284e-02
2.895103e-03
8.900892e-04
7.887807e-04
4.043388e-01
6.089909e-01
6.731858e-01
7.513320e-01
9.171175e-01
9.559794e-01
1.013738e+00
1.080650e+00
1.060906e+00
1.085093e+00
1.065859e+00
1.030089e+00
1.049305e+00
9.648599e-01
1.008007e+00
9.222764e-01
9.437448e-01
9.236391e-01
9.716990e-01
8.732706e-01
1.100008e+00
1.328111e+00
9.150456e-01
4.757825e-01
1.883093e-01
5.684724e-02
1.771377e-02
2.524793e-03
1.071567e-03
1.020161e-03
3.427884e-01
6.394474e-01
7.061209e-01
7.585541e-01
8.985489e-01
9.395526e-01
1.020738e+00
1.127792e+00
1.138466e+00
1.170335e+00
1.142986e+00
1.095525e+00
1.104322e+00
1.010112e+00
1.044082e+00
9.505294e-01
9.602257e-01
9.249716e-01
9.607419e-01
8.595634e-01
1.092112e+00
1.323899e+00
9.130248e-01
4.753473e-01
1.883427e-01
5.640792e-02
1.782234e-02
2.443651e-03
1.073575e-03
5.939556e-04
3.118148e-01
5.764603e-01
7.004383e-01
7.541972e-01
8.536182e-01
8.681573e-01
9.078695e-01
1.035135e+00
1.115484e+00
1.213632e+00
1.218038e+00
1.168566e+00
1.165053e+00
1.060527e+00
1.083407e+00
9.829312e-01
9.820788e-01
9.320594e-01
9.500579e-01
8.398284e-01
1.078457e+00
1.315078e+00
9.094395e-01
4.743202e-01
1.875270e-01
5.662260e-02
1.768968e-02
2.581918e-03
1.107763e-03
3.544324e-04
2.711176e-01
5.043321e-01
6.854276e-01
7.697452e-01
8.719610e-01
8.982487e-01
8.739188e-01
9.039401e-01
9.486100e-01
1.112695e+00
1.217930e+00
1.223784e+00
1.227458e+00
1.113317e+00
1.124136e+00
1.016977e+00
1.008299e+00
9.450242e-01
9.434399e-01
8.163538e-01
1.056657e+00
1.300168e+00
9.025208e-01
4.719859e-01
1.860981e-01
5.705356e-02
1.735285e-02
2.507635e-03
1.349782e-03
6.354027e-04
3.140872e-01
4.914441e-01
6.876435e-01
7.970579e-01
8.949554e-01
9.578499e-01
9.517436e-01
9.452454e-01
8.756286e-01
9.160838e-01
1.062705e+00
1.182292e+00
1.259321e+00
1.162364e+00
1.163882e+00
1.049698e+00
1.035587e+00
9.632851e-01
9.429767e-01
7.934788e-01
1.026344e+00
1.277054e+00
8.903919e-01
4.668730e-01
1.845117e-01
5.683014e-02
1.697635e-02
2.702618e-03
1.326472e-03
5.248108e-04
3.308098e-01
6.009092e-01
7.654049e-01
8.644961e-01
9.510347e-01
1.016641e+00
1.013697e+00
1.042066e+00
9.770038e-01
9.021427e-01
8.922380e-01
1.001917e+00
1.186822e+00
1.172933e+00
1.195455e+00
1.077116e+00
1.059798e+00
9.839680e-01
9.495648e-01
7.749714e-01
9.899911e-01
1.243487e+00
8.707437e-01
4.580297e-01
1.823850e-01
5.579092e-02
1.668123e-02
3.185131e-03
7.328814e-04
8.894760e-04
4.221119e-01
6.368828e-01
8.525030e-01
9.546511e-01
1.027232e+00
1.093408e+00
1.084826e+00
1.089476e+00
1.073051e+00
1.021155e+00
9.318205e-01
8.801023e-01
1.015290e+00
1.084320e+00
1.184377e+00
1.089768e+00
1.075731e+00
1.001827e+00
9.620631e-01
7.636770e-01
9.507061e-01
1.198719e+00
8.411693e-01
4.452074e-01
1.783196e-01
5.403356e-02
1.647880e-02
3.458013e-03
7.041252e-04
1.448340e-03
5.383850e-01
7.688974e-01
9.478001e-01
1.062882e+00
1.142817e+00
1.196795e+00
1.177516e+00
1.167496e+00
1.125770e+00
1.106090e+00
1.047414e+00
9.312610e-01
9.479295e-01
9.617007e-01
1.084270e+00
1.058743e+00
1.070502e+00
1.009439e+00
9.754362e-01
7.615357e-01
9.106519e-01
1.144213e+00
8.001434e-01
4.274292e-01
1.710622e-01
5.169248e-02
1.643557e-02
3.054991e-03
1.016520e-03
1.783181e-03
6.318984e-01
9.264177e-01
1.108608e+00
1.173807e+00
1.214569e+00
1.309316e+00
1.271923e+00
1.259154e+00
1.205725e+00
1.156939e+00
1.139522e+00
1.018661e+00
9.849632e-01
9.726176e-01
9.932095e-01
9.739770e-01
1.015842e+00
9.923478e-01
9.778861e-01
7.677789e-01
8.725218e-01
1.081376e+00
7.481774e-01
4.023569e-01
1.609495e-01
4.842643e-02
1.631352e-02
1.841662e-03
1.178789e-03
9.476777e-04
8.323869e-01
1.065918e+00
1.299818e+00
1.394696e+00
1.357821e+00
1.388887e+00
1.367817e+00
1.336454e+00
1.297578e+00
1.206042e+00
1.206285e+00
1.119076e+00
1.043866e+00
1.001548e+00
1.018397e+00
9.661284e-01
9.341365e-01
9.300494e-01
9.484977e-01
7.731165e-01
8.401078e-01
1.009051e+00
6.877840e-01
3.679553e-01
1.487461e-01
4.333258e-02
1.590869e-02
8.963659e-04
1.980710e-03
9.056443e-04
1.040181e+00
1.339342e+00
1.467493e+00
1.494477e+00
1.535642e+00
1.502402e+00
1.459168e+00
1.392453e+00
1.380528e+00
1.290401e+00
1.235427e+00
1.193803e+00
1.133289e+00
1.055567e+00
1.030756e+00
1.022128e+00
9.653708e-01
8.837667e-01
8.754005e-01
7.565014e-01
8.105364e-01
9.253807e-01
6.197270e-01
3.250187e-01
1.334020e-01
3.680502e-02
1.488054e-02
1.083293e-03
2.477756e-03
1.621235e-03
1.437971e+00
1.569686e+00
1.721418e+00
1.681557e+00
1.623104e+00
1.579585e+00
1.540945e+00
1.468262e+00
1.412573e+00
1.358713e+00
1.303543e+00
1.242496e+00
1.174994e+00
1.146741e+00
1.095911e+00
1.029586e+00
1.006905e+00
9.653370e-01
8.569656e-01
7.269225e-01
7.711819e-01
8.247813e-01
5.393623e-01
2.757842e-01
1.130756e-01
3.015613e-02
1.267363e-02
9.270768e-04
2.016742e-03
1.353862e-03
1.921198e+00
1.948254e+00
1.929954e+00
1.810378e+00
1.683527e+00
1.670483e+00
1.582410e+00
1.504997e+00
1.471616e+00
1.412596e+00
1.329581e+00
1.304248e+00
1.249597e+00
1.166215e+00
1.155415e+00
1.121451e+00
1.026283e+00
9.871065e-01
9.506434e-01
8.112537e-01
7.565370e-01
7.027146e-01
4.355913e-01
2.179658e-01
8.643354e-02
2.334642e-02
9.295744e-03
5.899674e-04
1.338024e-03
6.466900e-04
2.547973e+00
2.298122e+00
1.995987e+00
1.852119e+00
1.724145e+00
1.681909e+00
1.604233e+00
1.557926e+00
1.493556e+00
1.437410e+00
1.401690e+00
1.327001e+00
1.285709e+00
1.246432e+00
1.190059e+00
1.146224e+00
1.112772e+00
1.048878e+00
9.500395e-01
9.185841e-01
8.839532e-01
6.545514e-01
3.466676e-01
1.570033e-01
5.501099e-02
1.521397e-02
5.351370e-03
4.081713e-04
8.735296e-04
4.901779e-04
SCALARS DxRR double 1
LOOKUP_TABLE dxrr
1.031256e-05
1.076700e-05
1.054513e-05
1.072743e-05
1.091273e-05
1.094774e-05
1.059197e-05
1.119123e-05
1.073811e-05
1.100345e-05
1.119271e-05
1.090409e-05
1.169653e-05
1.150089e-05
1.311723e-05
1.254909e-05
1.356428e-05
1.352085e-05
1.431320e-05
1.326537e-05
1.586973e-05
1.752123e-05
1.104523e-05
5.354423e-06
1.963594e-06
5.488318e-07
1.737448e-07
1.015299e-08
1.893479e-08
-8.978201e-09
1.041069e-05
1.071555e-05
1.074684e-05
1.064733e-05
1.096126e-05
1.084390e-05
1.081327e-05
1.117137e-05
1.084422e-05
1.139115e-05
1.118806e-05
1.147015e-05
1.210342e-05
1.172519e-05
1.292539e-05
1.261378e-05
1.347573e-05
1.346605e-05
1.464325e-05
1.356814e-05
1.512045e-05
1.596594e-05
9.943172e-06
4.865500e-06
1.797222e-06
5.146823e-07
1.636277e-07
9.988052e-09
2.109970e-08
-1.498699e-08
1.017704e-05
1.105005e-05
1.077212e-05
1.050982e-05
1.105634e-05
1.086621e-05
1.079667e-05
1.128096e-05
1.106314e-05
1.136267e-05
1.155510e-05
1.167123e-05
1.227283e-05
1.192974e-05
1.309129e-05
1.244676e-05
1.355891e-05
1.395411e-05
1.476391e-05
1.247734e-05
1.341241e-05
1.490215e-05
9.649822e-06
4.921934e-06
1.850235e-06
5.573905e-07
1.701153e-07
1.541679e-08
1.946697e-08
-3.243905e-09
1.045602e-05
1.103103e-05
1.063341e-05
1.063101e-05
1.107409e-05
1.086249e-05
1.090578e-05
1.136649e-05
1.107163e-05
1.161487e-05
1.163730e-05
1.179065e-05
1.250518e-05
1.209204e-05
1.298535e-05
1.277189e-05
1.409567e-05
1.374666e-05
1.349354e-05
1.084899e-05
1.243613e-05
1.464384e-05
9.819426e-06
5.086769e-06
1.945814e-06
5.928590e-07
1.790304e-07
2.335901e-08
1.209051e-08
-7.233879e-09
1.030731e-05
1.115889e-05
1.073345e-05
1.063173e-05
1.098061e-05
1.087675e-05
1.100538e-05
1.142127e-05
1.117810e-05
1.160514e-05
1.185244e-05
1.193085e-05
1.250079e-05
1.215324e-05
1.345633e-05
1.331175e-05
1.352173e-05
1.238081e-05
1.208144e-05
1.001240e-05
1.219864e-05
1.476523e-05
1.009382e-05
5.247126e-06
2.038366e-06
6.143433e-07
1.925979e-07
2.150126e-08
1.894245e-08
-1.115604e-09
1.055870e-05
1.108901e-05
1.080422e-05
1.038435e-05
1.099250e-05
1.108073e-05
1.102819e-05
1.139264e-05
1.119470e-05
1.181814e-05
1.195633e-05
1.171645e-05
1.277841e-05
1.271938e-05
1.376026e-05
1.255206e-05
1.204601e-05
1.124525e-05
1.143584e-05
9.827330e-06
1.225112e-05
1.501538e-05
1.034359e-05
5.391448e-06
2.105893e-06
6.342753e-07
2.009549e-07
2.048495e-08
1.447871e-08
-2.333008e-09
1.030304e-05
1.112362e-05
1.075729e-05
1.035794e-05
1.122975e-05
1.106622e-05
1.087410e-05
1.149693e-05
1.136984e-05
1.180550e-05
1.171737e-05
1.209744e-05
1.344090e-05
1.266776e-05
1.282780e-05
1.114432e-05
1.107154e-05
1.085159e-05
1.130634e-05
9.860290e-06
1.241231e-05
1.528465e-05
1.056160e-05
5.506175e-06
2.154923e-06
6.531286e-07
1.991580e-07
3.224481e-08
9.248579e-09
-1.180794e-09
1.050468e-05
1.112730e-05
1.077456e-05
1.043521e-05
1.113761e-05
1.093611e-05
1.099133e-05
1.163002e-05
1.123326e-05
1.164530e-05
1.216400e-05
1.269890e-05
1.312771e-05
1.154634e-05
1.158855e-05
1.033404e-05
1.083116e-05
1.083448e-05
1.133236e-05
9.961753e-06
1.263218e-05
1.553537e-05
1.074837e-05
5.586646e-06
2.195427e-06
6.624914e-07
1.977185e-07
3.708847e-08
6.528999e-09
1.002281e-08
1.033515e-05
1.106218e-05
1.076927e-05
1.032107e-05
1.113213e-05
1.102800e-05
1.101949e-05
1.146075e-05
1.118102e-05
1.209843e-05
1.258380e-05
1.218042e-05
1.194837e-05
1.046406e-05
1.098104e-05
1.017518e-05
1.089388e-05
1.090153e-05
1.139278e-05
1.012229e-05
1.287183e-05
1.576307e-05
1.088839e-05
5.647413e-06
2.223895e-06
6.644754e-07
2.062684e-07
3.008651e-08
4.647811e-09
7.692878e-09
1.050672e-05
1.119628e-05
1.074294e-05
1.036146e-05
1.112710e-05
1.094603e-05
1.089829e-05
1.150876e-05
1.155061e-05
1.226631e-05
1.193029e-05
1.106482e-05
1.105975e-05
1.002605e-05
1.089961e-05
1.026019e-05
1.100646e-05
1.096220e-05
1.149764e-05
1.032505e-05
1.310959e-05
1.595551e-05
1.098148e-05
5.698387e-06
2.233640e-06
6.681080e-07
2.141693e-07
2.611015e-08
1.258213e-08
7.491277e-09
1.041905e-05
1.100180e-05
1.063712e-05
1.022094e-05
1.101500e-05
1.090489e-05
1.097442e-05
1.170907e-05
1.146938e-05
1.157294e-05
1.098527e-05
1.039742e-05
1.077024e-05
9.997584e-06
1.099291e-05
1.038746e-05
1.108977e-05
1.103255e-05
1.165852e-05
1.054375e-05
1.333002e-05
1.609489e-05
1.104709e-05
5.733031e-06
2.235062e-06
6.746691e-07
2.095963e-07
2.694365e-08
1.492285e-08
1.040739e-09
1.032881e-05
1.085422e-05
1.048930e-05
1.016588e-05
1.101803e-05
1.092217e-05
1.098999e-05
1.148560e-05
1.085643e-05
1.087571e-05
1.054013e-05
1.023232e-05
1.077447e-05
1.008830e-05
1.111771e-05
1.048612e-05
1.114945e-05
1.115115e-05
1.185379e-05
1.076199e-05
1.350637e-05
1.618698e-05
1.109504e-05
5.746483e-06
2.240993e-06
6.800908e-07
2.034956e-07
3.050282e-08
1.137237e-08
-3.004737e-09
1.037012e-05
1.091871e-05
1.056963e-05
1.021205e-05
1.099982e-05
1.087406e-05
1.079114e-05
1.106442e-05
1.042107e-05
1.062378e-05
1.046164e-05
1.025388e-05
1.085398e-05
1.020270e-05
1.121662e-05
1.054425e-05
1.123752e-05
1.131605e-05
1.206030e-05
1.095388e-05
1.362538e-05
1.624991e-05
1.112285e-05
5.749580e-06
2.247480e-06
6.796259e-07
2.053457e-07
3.317346e-08
1.110162e-08
1.953696e-09
1.029937e-05
1.104778e-05
1.068566e-05
1.026769e-05
1.102958e-05
1.080642e-05
1.058192e-05
1.084065e-05
1.029662e-05
1.058893e-05
1.048171e-05
1.031858e-05
1.095184e-05
1.029167e-05
1.126879e-05
1.061323e-05
1.137444e-05
1.150306e-05
1.225237e-05
1.109297e-05
1.370042e-05
1.628966e-05
1.113407e-05
5.754393e-06
2.249062e-06
6.759366e-07
2.084611e-07
3.017635e-08
1.069346e-08
3.631409e-09
1.021633e-05
1.103469e-05
1.070680e-05
1.029850e-05
1.101267e-05
1.071282e-05
1.046389e-05
1.075696e-05
1.025711e-05
1.059147e-05
1.052892e-05
1.039636e-05
1.102179e-05
1.033269e-05
1.132351e-05
1.072800e-05
1.154089e-05
1.168468e-05
1.239868e-05
1.117974e-05
1.374735e-05
1.630775e-05
1.113880e-05
5.759628e-06
2.248104e-06
6.758973e-07
2.097560e-07
2.764313e-08
1.058061e-08
3.958448e-09
1.010358e-05
1.092231e-05
1.061795e-05
1.022675e-05
1.093942e-05
1.060762e-05
1.035482e-05
1.068551e-05
1.023984e-05
1.062195e-05
1.058268e-05
1.044001e-05
1.104689e-05
1.037610e-05
1.142137e-05
1.087442e-05
1.170696e-05
1.182759e-05
1.248986e-05
1.123156e-05
1.377183e-05
1.631369e-05
1.114301e-05
5.760341e-06
2.247212e-06
6.779840e-07
2.092087e-07
2.918671e-08
1.169252e-08
3.614237e-09
1.004023e-05
1.082516e-05
1.053611e-05
1.015618e-05
1.080595e-05
1.045265e-05
1.025405e-05
1.065318e-05
1.025026e-05
1.064484e-05
1.059652e-05
1.044917e-05
1.108260e-05
1.046181e-05
1.154969e-05
1.102144e-05
1.183821e-05
1.191617e-05
1.254191e-05
1.125900e-05
1.378027e-05
1.631770e-05
1.114564e-05
5.758449e-06
2.247948e-06
6.783762e-07
2.069376e-07
3.056494e-08
1.168674e-08
1.665980e-09
9.982178e-06
1.075986e-05
1.045815e-05
9.995054e-06
1.062786e-05
1.034025e-05
1.020678e-05
1.063603e-05
1.023933e-05
1.063270e-05
1.059497e-05
1.048100e-05
1.115896e-05
1.057323e-05
1.167623e-05
1.113542e-05
1.191763e-05
1.196477e-05
1.256925e-05
1.126842e-05
1.378375e-05
1.632098e-05
1.114485e-05
5.758351e-06
2.249405e-06
6.775155e-07
2.066084e-07
3.082150e-08
1.115041e-08
1.455981e-09
9.923657e-06
1.069020e-05
1.032094e-05
9.841954e-06
1.052057e-05
1.027778e-05
1.016414e-05
1.060065e-05
1.021292e-05
1.062803e-05
1.062535e-05
1.054823e-05
1.125257e-05
1.067685e-05
1.176855e-05
1.120075e-05
1.195936e-05
1.198978e-05
1.257874e-05
1.127156e-05
1.378714e-05
1.632058e-05
1.114380e-05
5.760074e-06
2.248765e-06
6.769584e-07
2.084232e-07
3.009911e-08
1.092094e-08
2.790498e-09
9.879096e-06
1.059392e-05
1.018816e-05
9.721738e-06
1.043532e-05
1.021650e-05
1.011818e-05
1.057311e-05
1.021231e-05
1.065838e-05
1.068275e-05
1.062309e-05
1.133210e-05
1.074567e-05
1.181734e-05
1.123324e-05
1.197949e-05
1.199750e-05
1.258148e-05
1.127500e-05
1.378744e-05
1.631932e-05
1.114512e-05
5.760197e-06
2.247283e-06
6.776635e-07
2.089917e-07
2.896265e-08
1.116904e-08
3.422723e-09
9.801667e-06
1.046865e-05
1.005965e-05
9.633288e-06
1.037757e-05
1.017760e-05
1.009924e-05
1.057740e-05
1.023848e-05
1.070177e-05
1.073631e-05
1.067759e-05
1.137789e-05
1.077886e-05
1.184115e-05
1.124836e-05
1.198489e-05
1.199943e-05
1.258430e-05
1.127506e-05
1.378607e-05
1.632074e-05
1.114574e-05
5.758796e-06
2.247979e-06
6.782301e-07
2.078032e-07
2.938216e-08
1.166627e-08
2.789129e-09
9.699257e-06
1.034969e-05
9.982869e-06
9.588902e-06
1.035144e-05
1.016722e-05
1.010317e-05
1.059333e-05
1.026419e-05
1.073317e-05
1.076763e-05
1.070390e-05
1.139812e-05
1.079434e-05
1.185049e-05
1.125131e-05
1.198692e-05
1.200244e-05
1.258430e-05
1.127354e-05
1.378700e-05
1.632134e-05
1.114436e-05
5.759130e-06
2.249276e-06
6.773320e-07
2.072449e-07
3.057093e-08
1.138461e-08
2.044487e-09
9.586902e-06
1.027934e-05
9.942819e-06
9.565301e-06
1.033888e-05
1.016347e-05
1.010799e-05
1.060549e-05
1.027982e-05
1.074845e-05
1.078083e-05
1.071514e-05
1.140713e-05
1.079905e-05
1.185152e-05
1.125281e-05
1.198888e-05
1.200183e-05
1.258341e-05
1.127513e-05
1.378768e-05
1.631977e-05
1.114432e-05
5.760177e-06
2.248573e-06
6.769440e-07
2.081114e-07
3.037434e-08
1.080240e-08
2.336064e-09
9.532738e-06
1.025087e-05
9.929409e-06
9.557764e-06
1.033486e-05
1.016354e-05
1.011114e-05
1.061009e-05
1.028557e-05
1.075511e-05
1.078709e-05
1.071917e-05
1.140810e-05
1.079930e-05
1.185358e-05
1.125447e-05
1.198772e-05
1.200077e-05
1.258452e-05
1.127549e-05
1.378661e-05
1.632021e-05
1.114551e-05
5.759342e-06
2.247602e-06
6.779134e-07
2.084946e-07
2.943079e-08
1.113809e-08
2.958052e-09
9.504164e-06
1.023843e-05
9.922199e-06
9.553996e-06
1.033435e-05
1.016454e-05
1.011282e-05
1.061242e-05
1.028775e-05
1.075641e-05
1.078770e-05
1.071976e-05
1.140955e-05
1.080099e-05
1.185332e-05
1.125284e-05
1.198802e-05
1.200261e-05
1.258431e-05
1.127377e-05
1.378675e-05
1.632140e-05
1.114515e-05
5.758794e-06
2.248286e-06
6.780276e-07
2.077431e-07
2.954792e-08
1.176998e-08
2.790506e-09
9.497689e-06
1.023743e-05
9.922461e-06
9.553430e-06
1.033283e-05
1.016371e-05
1.011325e-05
1.061322e-05
1.028829e-05
1.075660e-05
1.078776e-05
1.072028e-05
1.141020e-05
1.080072e-05
1.185280e-05
1.125345e-05
1.198868e-05
1.200183e-05
1.258370e-05
1.127482e-05
1.378741e-05
1.632018e-05
1.114438e-05
5.759883e-06
2.248925e-06
6.771702e-07
2.075335e-07
3.022086e-08
1.147082e-08
2.319955e-09
9.495504e-06
1.023618e-05
9.921270e-06
9.553481e-06
1.033396e-05
1.016430e-05
1.011269e-05
1.061257e-05
1.028860e-05
1.075786e-05
1.078891e-05
1.071987e-05
1.140844e-05
1.080007e-05
1.185428e-05
1.125457e-05
1.198774e-05
1.200083e-05
1.258434e-05
1.127555e-05
1.378695e-05
1.631984e-05
1.114485e-05
5.759844e-06
2.248295e-06
6.773705e-07
2.082576e-07
3.004345e-08
1.074374e-08
2.465648e-09
9.493454e-06
1.023526e-05
9.920800e-06
9.552637e-06
1.033304e-05
1.016438e-05
1.011388e-05
1.061352e-05
1.028813e-05
1.075632e-05
1.078781e-05
1.072053e-05
1.141037e-05
1.080083e-05
1.185264e-05
1.125291e-05
1.198859e-05
1.200266e-05
1.258414e-05
1.127390e-05
1.378677e-05
1.632121e-05
1.114526e-05
5.758830e-06
2.247889e-06
6.780426e-07
2.084243e-07
2.956680e-08
1.089393e-08
2.854092e-09
9.495744e-06
1.023710e-05
9.922159e-06
9.553608e-06
1.033322e-05
1.016351e-05
1.011249e-05
1.061288e-05
1.028890e-05
1.075764e-05
1.078834e-05
1.071996e-05
1.140952e-05
1.080064e-05
1.185324e-05
1.125343e-05
1.198826e-05
1.200194e-05
1.258412e-05
1.127461e-05
1.378704e-05
1.632060e-05
1.114486e-05
5.759407e-06
2.248453e-06
6.775797e-07
2.076983e-07
2.982722e-08
1.172999e-08
2.688180e-09
9.493410e-06
1.023483e-05
9.920229e-06
9.552757e-06
1.033385e-05
1.016494e-05
1.011359e-05
1.061287e-05
1.028805e-05
1.075716e-05
1.078876e-05
1.072022e-05
1.140885e-05
1.080022e-05
1.185414e-05
1.125437e-05
1.198762e-05
1.200071e-05
1.258428e-05
1.127573e-05
1.378718e-05
1.631971e-05
1.114457e-05
5.760069e-06
2.248788e-06
6.771140e-07
2.074210e-07
3.019560e-08
1.183806e-08
2.276129e-09
9.494967e-06
1.023698e-05
9.922345e-06
9.553353e-06
1.033263e-05
1.016346e-05
1.011324e-05
1.061360e-05
1.028864e-05
1.075649e-05
1.078751e-05
1.072045e-05
1.141069e-05
1.080091e-05
1.185240e-05
1.125295e-05
1.198883e-05
1.200248e-05
1.258377e-05
1.127406e-05
1.378711e-05
1.632102e-05
1.114495e-05
5.759140e-06
2.248233e-06
6.776919e-07
2.081505e-07
2.994110e-08
1.090730e-08
2.424513e-09
9.494788e-06
1.023554e-05
9.920556e-06
9.553238e-06
1.033422e-05
1.016456e-05
1.011268e-05
1.061242e-05
1.028865e-05
1.075815e-05
1.078896e-05
1.071964e-05
1.140863e-05
1.080053e-05
1.185389e-05
1.125366e-05
1.198802e-05
1.200206e-05
1.258431e-05
1.127422e-05
1.378667e-05
1.632099e-05
1.114532e-05
5.759042e-06
2.247814e-06
6.778702e-07
2.086671e-07
2.966118e-08
1.041691e-08
2.954256e-09
9.493378e-06
1.023594e-05
9.921630e-06
9.552729e-06
1.033255e-05
1.016423e-05
1.011416e-05
1.061368e-05
1.028790e-05
1.075605e-05
1.078804e-05
1.072082e-05
1.140978e-05
1.080013e-05
1.185351e-05
1.125431e-05
1.198795e-05
1.200084e-05
1.258433e-05
1.127577e-05
1.378697e-05
1.631956e-05
1.114477e-05
5.760067e-06
2.248447e-06
6.773410e-07
2.079565e-07
2.976264e-08
1.138410e-08
2.966000e-09
9.496288e-06
1.023648e-05
9.921364e-06
9.553853e-06
1.033401e-05
1.016351e-05
1.011193e-05
1.061272e-05
1.028933e-05
1.075790e-05
1.078791e-05
1.071964e-05
1.141015e-05
1.080122e-05
1.185261e-05
1.125275e-05
1.198879e-05
1.200252e-05
1.258373e-05
1.127436e-05
1.378740e-05
1.632056e-05
1.114437e-05
5.759450e-06
2.248991e-06
6.776502e-07
2.071319e-07
2.980968e-08
1.238441e-08
2.344314e-09
9.493511e-06
1.023574e-05
9.921087e-06
9.552235e-06
1.033291e-05
1.016521e-05
1.011442e-05
1.061290e-05
1.028732e-05
1.075681e-05
1.078916e-05
1.072044e-05
1.140848e-05
1.080006e-05
1.185419e-05
1.125394e-05
1.198766e-05
1.200194e-05
1.258452e-05
1.127406e-05
1.378662e-05
1.632142e-05
1.114524e-05
5.758602e-06
2.248240e-06
6.780724e-07
2.077526e-07
2.993073e-08
1.151856e-08
2.019646e-09
9.499493e-06
1.023742e-05
9.922386e-06
9.554802e-06
1.033398e-05
1.016286e-05
1.011197e-05
1.061337e-05
1.028912e-05
1.075638e-05
1.078680e-05
1.072009e-05
1.141049e-05
1.080046e-05
1.185279e-05
1.125409e-05
1.198835e-05
1.200078e-05
1.258405e-05
1.127570e-05
1.378697e-05
1.631986e-05
1.114518e-05
5.759900e-06
2.247830e-06
6.770512e-07
2.087651e-07
3.041371e-08
9.983576e-09
2.556456e-09
9.503308e-06
1.024012e-05
9.923174e-06
9.553680e-06
1.033458e-05
1.016640e-05
1.011389e-05
1.061139e-05
1.028658e-05
1.075678e-05
1.078815e-05
1.071872e-05
1.140834e-05
1.080080e-05
1.185311e-05
1.125253e-05
1.198848e-05
1.200263e-05
1.258362e-05
1.127447e-05
1.378775e-05
1.632009e-05
1.114412e-05
5.760338e-06
2.248708e-06
6.766181e-07
2.082767e-07
3.024632e-08
1.062588e-08
3.205240e-09
9.518872e-06
1.024567e-05
9.927795e-06
9.559953e-06
1.033831e-05
1.016630e-05
1.011463e-05
1.061374e-05
1.028623e-05
1.075217e-05
1.078387e-05
1.071771e-05
1.140704e-05
1.079805e-05
1.185298e-05
1.125397e-05
1.198744e-05
1.200170e-05
1.258481e-05
1.127410e-05
1.378636e-05
1.632121e-05
1.114519e-05
5.758850e-06
2.248391e-06
6.782591e-07
2.074986e-07
2.906150e-08
1.257221e-08
2.905816e-09
9.534409e-06
1.025939e-05
9.935217e-06
9.565884e-06
1.034875e-05
1.017929e-05
1.012200e-05
1.061439e-05
1.028501e-05
1.075013e-05
1.077770e-05
1.070912e-05
1.140208e-05
1.079570e-05
1.184926e-05
1.125190e-05
1.198802e-05
1.200057e-05
1.258374e-05
1.127569e-05
1.378644e-05
1.631999e-05
1.114612e-05
5.759021e-06
2.247220e-06
6.787980e-07
2.080987e-07
2.899193e-08
1.209419e-08
1.965874e-09
9.531707e-06
1.026517e-05
9.945783e-06
9.581625e-06
1.036720e-05
1.020073e-05
1.014769e-05
1.063590e-05
1.029266e-05
1.074506e-05
1.076742e-05
1.069548e-05
1.138537e-05
1.078273e-05
1.184249e-05
1.124635e-05
1.198476e-05
1.200135e-05
1.258323e-05
1.127412e-05
1.378775e-05
1.632043e-05
1.114425e-05
5.759640e-06
2.248629e-06
6.772572e-07
2.082053e-07
3.066850e-08
9.818585e-09
1.952609e-09
9.498791e-06
1.025119e-05
9.943013e-06
9.591654e-06
1.039930e-05
1.024945e-05
1.019919e-05
1.068408e-05
1.033129e-05
1.076224e-05
1.075822e-05
1.067053e-05
1.135611e-05
1.075299e-05
1.181923e-05
1.123389e-05
1.197688e-05
1.199652e-05
1.258310e-05
1.127320e-05
1.378640e-05
1.632191e-05
1.114381e-05
5.758513e-06
2.250333e-06
6.770474e-07
2.069498e-07
3.088343e-08
1.020708e-08
3.329246e-09
9.440111e-06
1.019243e-05
9.920011e-06
9.594213e-06
1.042159e-05
1.030417e-05
1.028824e-05
1.078570e-05
1.042177e-05
1.082745e-05
1.078633e-05
1.065460e-05
1.130937e-05
1.069852e-05
1.176888e-05
1.119580e-05
1.195613e-05
1.198517e-05
1.257651e-05
1.127295e-05
1.378618e-05
1.631976e-05
1.114492e-05
5.759567e-06
2.248599e-06
6.775815e-07
2.074151e-07
2.903764e-08
1.281960e-08
4.025372e-09
9.372358e-06
1.008992e-05
9.840173e-06
9.580330e-06
1.046591e-05
1.038040e-05
1.038976e-05
1.091970e-05
1.057612e-05
1.096895e-05
1.088439e-05
1.069123e-05
1.127813e-05
1.061851e-05
1.167794e-05
1.111770e-05
1.190098e-05
1.195604e-05
1.256209e-05
1.126603e-05
1.378565e-05
1.631801e-05
1.114408e-05
5.762047e-06
2.246862e-06
6.764010e-07
2.095104e-07
2.908991e-08
1.275140e-08
2.264957e-09
9.262477e-06
9.948400e-06
9.712592e-06
9.521701e-06
1.050295e-05
1.050592e-05
1.056246e-05
1.110028e-05
1.076190e-05
1.116631e-05
1.106905e-05
1.081813e-05
1.131526e-05
1.055910e-05
1.155172e-05
1.098115e-05
1.179110e-05
1.188356e-05
1.252619e-05
1.125001e-05
1.377730e-05
1.631743e-05
1.114458e-05
5.760083e-06
2.247213e-06
6.768160e-07
2.090265e-07
3.092755e-08
1.023330e-08
2.665985e-10
9.087726e-06
9.734535e-06
9.555328e-06
9.472331e-06
1.057475e-05
1.067563e-05
1.081274e-05
1.139216e-05
1.103553e-05
1.140237e-05
1.129207e-05
1.102695e-05
1.145644e-05
1.058034e-05
1.144480e-05
1.079351e-05
1.160214e-05
1.174235e-05
1.244122e-05
1.121055e-05
1.375965e-05
1.631166e-05
1.114539e-05
5.756236e-06
2.247126e-06
6.801121e-07
2.067224e-07
3.062315e-08
1.007296e-08
1.594740e-09
8.773997e-06
9.420817e-06
9.429045e-06
9.516894e-06
1.076299e-05
1.097595e-05
1.116961e-05
1.178421e-05
1.143831e-05
1.175159e-05
1.155603e-05
1.124842e-05
1.166394e-05
1.071329e-05
1.142535e-05
1.061469e-05
1.133973e-05
1.150241e-05
1.227754e-05
1.111940e-05
1.372144e-05
1.629814e-05
1.113861e-05
5.755059e-06
2.248411e-06
6.800278e-07
2.064550e-07
2.926047e-08
1.151888e-08
4.747680e-09
8.351907e-06
9.376831e-06
9.641210e-06
9.819722e-06
1.109018e-05
1.136213e-05
1.162716e-05
1.226315e-05
1.191946e-05
1.221858e-05
1.193713e-05
1.150070e-05
1.185313e-05
1.089599e-05
1.152445e-05
1.052222e-05
1.106340e-05
1.116099e-05
1.199812e-05
1.094622e-05
1.363733e-05
1.626652e-05
1.112336e-05
5.753622e-06
2.250850e-06
6.749017e-07
2.078320e-07
2.998078e-08
1.075674e-08
4.917684e-09
8.431108e-06
1.025404e-05
1.048404e-05
1.037104e-05
1.133406e-05
1.144179e-05
1.177585e-05
1.258027e-05
1.233465e-05
1.267447e-05
1.239495e-05
1.185478e-05
1.204670e-05
1.102713e-05
1.166624e-05
1.055764e-05
1.085890e-05
1.076782e-05
1.158676e-05
1.065211e-05
1.347767e-05
1.619417e-05
1.109744e-05
5.748486e-06
2.247403e-06
6.721141e-07
2.101076e-07
3.038483e-08
1.023201e-08
2.300281e-09
8.511546e-06
1.086788e-05
1.100295e-05
1.072291e-05
1.136233e-05
1.099341e-05
1.102430e-05
1.198351e-05
1.215381e-05
1.280883e-05
1.270204e-05
1.223197e-05
1.231382e-05
1.111991e-05
1.172813e-05
1.065057e-05
1.078973e-05
1.040998e-05
1.107445e-05
1.020763e-05
1.320175e-05
1.605723e-05
1.104800e-05
5.734213e-06
2.237316e-06
6.749716e-07
2.111339e-07
2.725887e-08
1.260962e-08
6.792064e-10
7.679511e-06
9.917165e-06
1.043473e-05
1.041299e-05
1.124782e-05
1.077048e-05
1.015058e-05
1.044052e-05
1.064683e-05
1.193250e-05
1.240297e-05
1.231098e-05
1.255829e-05
1.125247e-05
1.169402e-05
1.065995e-05
1.081547e-05
1.017836e-05
1.053592e-05
9.614342e-06
1.277105e-05
1.582594e-05
1.095668e-05
5.699082e-06
2.224925e-06
6.782770e-07
2.063507e-07
2.632533e-08
1.532614e-08
-3.104313e-10
8.457185e-06
9.612409e-06
9.955912e-06
9.897012e-06
1.070534e-05
1.054909e-05
1.012830e-05
9.725383e-06
8.733357e-06
9.702754e-06
1.082529e-05
1.153721e-05
1.237587e-05
1.134482e-05
1.164619e-05
1.051660e-05
1.079882e-05
1.008769e-05
1.007659e-05
8.909886e-06
1.216885e-05
1.546609e-05
1.079503e-05
5.633384e-06
2.209143e-06
6.758602e-07
1.994713e-07
3.198183e-08
1.364103e-08
-8.091226e-10
8.299172e-06
1.002733e-05
9.895364e-06
9.666269e-06
1.020395e-05
9.680682e-06
9.497934e-06
9.817799e-06
8.378420e-06
7.809732e-06
8.155636e-06
9.389425e-06
1.113719e-05
1.093088e-05
1.155730e-05
1.026498e-05
1.061940e-05
1.003923e-05
9.774757e-06
8.177188e-06
1.140074e-05
1.494758e-05
1.053067e-05
5.529374e-06
2.183772e-06
6.621508e-07
1.979323e-07
3.618470e-08
6.610279e-09
3.444131e-09
8.710756e-06
9.885409e-06
9.857967e-06
9.365521e-06
9.896689e-06
9.277005e-06
8.396642e-06
8.623208e-06
8.300238e-06
7.735640e-06
6.482033e-06
6.568195e-06
8.561283e-06
9.278385e-06
1.097509e-05
9.902433e-06
1.025137e-05
9.876827e-06
9.622207e-06
7.523897e-06
1.049675e-05
1.425095e-05
1.014016e-05
5.374229e-06
2.134182e-06
6.388606e-07
2.008735e-07
3.438523e-08
6.724226e-10
1.206662e-08
9.348058e-06
1.012167e-05
9.827855e-06
9.074110e-06
9.300184e-06
8.532070e-06
8.145054e-06
7.501066e-06
6.735894e-06
7.297873e-06
6.532660e-06
5.173875e-06
5.886649e-06
6.305459e-06
9.119104e-06
9.032278e-06
9.656916e-06
9.475957e-06
9.497230e-06
7.046858e-06
9.502068e-06
1.338332e-05
9.602805e-06
5.149912e-06
2.045231e-06
6.154071e-07
1.999104e-07
2.795716e-08
2.065745e-09
1.621989e-08
9.454172e-06
1.050557e-05
9.804534e-06
8.512156e-06
8.942907e-06
7.464312e-06
6.917339e-06
7.096540e-06
5.808110e-06
5.595860e-06
5.793146e-06
5.026070e-06
5.002989e-06
3.745853e-06
6.046336e-06
6.973331e-06
8.444894e-06
8.720754e-06
9.176123e-06
6.770360e-06
8.485545e-06
1.235866e-05
8.911701e-06
4.829516e-06
1.921621e-06
5.842153e-07
1.912739e-07
1.830861e-08
1.300527e-08
5.662004e-09
1.009659e-05
1.062648e-05
9.797721e-06
7.987608e-06
7.732212e-06
6.917368e-06
5.717982e-06
5.502306e-06
5.136520e-06
4.778493e-06
4.394522e-06
3.844911e-06
4.706460e-06
3.234000e-06
3.720045e-06
4.068222e-06
6.060237e-06
7.229711e-06
8.360150e-06
6.525841e-06
7.546936e-06
1.116164e-05
8.086999e-06
4.385952e-06
1.773884e-06
5.255923e-07
1.828170e-07
8.476332e-09
2.542720e-08
-1.177301e-08
1.056519e-05
1.120005e-05
8.789087e-06
7.228020e-06
6.667321e-06
5.142238e-06
4.866098e-06
4.422070e-06
3.659346e-06
3.646659e-06
3.775285e-06
2.821609e-06
3.211278e-06
2.837075e-06
3.238498e-06
2.345556e-06
3.245583e-06
4.623056e-06
6.594958e-06
5.881079e-06
6.672468e-06
9.772006e-06
7.131764e-06
3.821352e-06
1.586748e-06
4.439435e-07
1.731826e-07
8.432824e-10
2.794249e-08
-1.900156e-08
1.196300e-05
1.036532e-05
8.014714e-06
5.629473e-06
5.003295e-06
3.778565e-06
3.442126e-06
2.891856e-06
2.811448e-06
2.614293e-06
2.279919e-06
2.331621e-06
2.399291e-06
1.560014e-06
2.346628e-06
2.021816e-06
2.042824e-06
2.029082e-06
3.740810e-06
4.242073e-06
5.501742e-06
8.113912e-06
5.981652e-06
3.157090e-06
1.332127e-06
3.593070e-07
1.485134e-07
-6.123960e-10
2.082519e-08
-1.210953e-08
1.212352e-05
8.828827e-06
5.612658e-06
3.390219e-06
2.967272e-06
2.299318e-06
1.871951e-06
1.843520e-06
1.557532e-06
1.532341e-06
1.414677e-06
1.465891e-06
1.220451e-06
1.180469e-06
1.432884e-06
7.049677e-07
1.664699e-06
1.368463e-06
1.303336e-06
1.653628e-06
3.464756e-06
5.862346e-06
4.441145e-06
2.355238e-06
9.877186e-07
2.721828e-07
1.058886e-07
2.929783e-09
1.208660e-08
-3.567525e-09
1.054969e-05
4.050204e-06
2.231177e-06
8.757425e-07
1.047190e-06
7.540293e-07
6.679848e-07
6.889641e-07
4.462353e-07
7.826814e-07
2.969929e-07
6.803525e-07
5.363362e-07
2.228021e-07
7.540807e-07
1.886463e-07
5.077378e-07
5.383822e-07
7.779156e-07
1.417670e-07
7.687895e-07
2.568125e-06
2.083784e-06
1.197818e-06
4.982775e-07
1.458148e-07
5.447839e-08
8.686823e-10
8.031703e-09
-3.871034e-09
SCALARS DxZZ double 1
LOOKUP_TABLE dxzz
-3.472690e-06
-4.129038e-06
-4.202456e-06
-3.971826e-06
-3.749161e-06
-3.823823e-06
-3.547456e-06
-3.776933e-06
-3.659504e-06
-3.654156e-06
-3.591480e-06
-3.720688e-06
-3.660082e-06
-3.681778e-06
-3.832497e-06
-3.787926e-06
-3.902845e-06
-3.902962e-06
-3.841263e-06
-3.979600e-06
-4.264459e-06
-3.845037e-06
-2.290547e-06
-1.036855e-06
-3.507978e-07
-1.165277e-07
-1.635987e-08
-6.376211e-09
-5.906559e-09
1.142446e-08
-3.914931e-06
-3.742801e-06
-3.791215e-06
-3.961243e-06
-3.723356e-06
-3.519113e-06
-3.772399e-06
-3.622536e-06
-3.682915e-06
-3.709013e-06
-3.609979e-06
-3.795149e-06
-3.859125e-06
-3.653185e-06
-3.643884e-06
-3.774603e-06
-3.770545e-06
-3.685514e-06
-4.090056e-06
-4.212863e-06
-3.400780e-06
-1.987985e-06
-8.486820e-07
-3.059728e-07
-5.957654e-08
-3.231663e-08
5.336495e-09
1.766317e-09
-9.350270e-09
1.538427e-08
-3.685547e-06
-3.633584e-06
-3.811629e-06
-3.758764e-06
-3.676548e-06
-3.649537e-06
-3.564238e-06
-3.725026e-06
-3.618139e-06
-3.656283e-06
-3.712672e-06
-3.812638e-06
-3.739961e-06
-3.735750e-06
-3.684607e-06
-3.554527e-06
-3.702289e-06
-4.125172e-06
-4.009535e-06
-2.969916e-06
-1.695418e-06
-7.290672e-07
-2.721294e-07
-8.875396e-08
-6.671852e-09
-1.964881e-08
9.752408e-09
-3.574848e-09
-7.604947e-10
3.470374e-09
-3.643422e-06
-3.732498e-06
-3.912327e-06
-3.901735e-06
-3.564935e-06
-3.420142e-06
-3.755991e-06
-3.568865e-06
-3.589878e-06
-3.720628e-06
-3.627733e-06
-3.706156e-06
-3.861459e-06
-3.659105e-06
-3.503131e-06
-3.777665e-06
-4.102405e-06
-3.739179e-06
-2.571228e-06
-1.371064e-06
-6.575601e-07
-2.884620e-07
-1.252117e-07
-4.401240e-08
-1.015514e-08
-4.816722e-09
-2.086106e-10
-1.731833e-09
6.744457e-09
-9.884152e-09
-3.628354e-06
-3.797469e-06
-3.676384e-06
-3.658428e-06
-3.410835e-06
-3.600351e-06
-3.609340e-06
-3.565943e-06
-3.567885e-06
-3.563496e-06
-3.651465e-06
-3.759606e-06
-3.631333e-06
-3.561355e-06
-3.938337e-06
-4.065925e-06
-3.410348e-06
-2.207743e-06
-1.128913e-06
-5.601573e-07
-3.280105e-07
-1.965775e-07
-9.028923e-08
-3.245857e-08
-1.898324e-08
9.042972e-09
-1.195659e-08
6.455250e-09
9.964985e-10
-1.577571e-08
-3.813570e-06
-3.666168e-06
-3.762692e-06
-3.555250e-06
-3.487348e-06
-3.580772e-06
-3.579895e-06
-3.443861e-06
-3.442668e-06
-3.650794e-06
-3.581114e-06
-3.481241e-06
-3.646931e-06
-4.086309e-06
-4.024226e-06
-3.099883e-06
-1.889580e-06
-9.579414e-07
-5.071750e-07
-3.486967e-07
-2.593736e-07
-1.829932e-07
-7.083229e-08
-3.350321e-08
-1.254252e-08
4.532146e-09
-8.936106e-09
6.919656e-09
-2.910394e-11
2.142157e-09
-3.727886e-06
-3.751189e-06
-3.525028e-06
-3.488003e-06
-3.551918e-06
-3.531711e-06
-3.368153e-06
-3.351343e-06
-3.577951e-06
-3.444804e-06
-3.305404e-06
-3.664802e-06
-4.137919e-06
-3.918277e-06
-2.846224e-06
-1.645524e-06
-8.647167e-07
-4.880087e-07
-3.839811e-07
-3.223329e-07
-2.510242e-07
-1.642007e-07
-6.170516e-08
-3.071911e-08
-3.825143e-09
-4.949147e-09
2.767861e-09
-4.720741e-09
-3.136214e-09
1.278125e-08
-3.806221e-06
-3.609293e-06
-3.565386e-06
-3.588848e-06
-3.455851e-06
-3.306415e-06
-3.317615e-06
-3.446118e-06
-3.302837e-06
-3.206025e-06
-3.611918e-06
-4.043588e-06
-3.715784e-06
-2.626035e-06
-1.495801e-06
-8.303279e-07
-5.372538e-07
-4.176788e-07
-3.909952e-07
-3.288986e-07
-2.414626e-07
-1.370950e-07
-5.692718e-08
-2.074413e-08
-3.139319e-09
-7.468020e-09
7.797495e-09
-1.891442e-09
-6.313452e-09
5.146537e-09
-3.784673e-06
-3.699832e-06
-3.617164e-06
-3.417527e-06
-3.282688e-06
-3.283270e-06
-3.313025e-06
-3.173607e-06
-3.163095e-06
-3.525310e-06
-3.809919e-06
-3.422307e-06
-2.412794e-06
-1.428002e-06
-8.548111e-07
-6.221962e-07
-5.024344e-07
-4.439607e-07
-4.103248e-07
-3.302160e-07
-2.168514e-07
-1.102882e-07
-4.707247e-08
-1.430289e-08
-8.592253e-10
-5.638154e-09
-2.209988e-09
6.251319e-09
-9.086540e-10
3.137957e-09
-3.866074e-06
-3.687529e-06
-3.418226e-06
-3.281609e-06
-3.236475e-06
-3.190534e-06
-3.078181e-06
-3.117479e-06
-3.378270e-06
-3.488647e-06
-3.072695e-06
-2.215195e-06
-1.406619e-06
-9.380063e-07
-7.304695e-07
-6.148805e-07
-5.266514e-07
-4.796264e-07
-4.170277e-07
-3.104374e-07
-1.827486e-07
-8.300347e-08
-3.477827e-08
-1.215076e-08
1.288455e-09
1.514930e-09
-6.632612e-09
1.645293e-10
-2.321169e-09
-4.285051e-09
-3.812155e-06
-3.512215e-06
-3.331990e-06
-3.200560e-06
-3.089503e-06
-2.996840e-06
-3.031033e-06
-3.166062e-06
-3.141080e-06
-2.738508e-06
-2.052433e-06
-1.423654e-06
-1.050675e-06
-8.656997e-07
-7.405384e-07
-6.282294e-07
-5.598923e-07
-5.008594e-07
-3.988427e-07
-2.696852e-07
-1.413976e-07
-5.973540e-08
-2.240797e-08
-7.438757e-09
-5.105880e-09
6.169163e-09
8.610431e-10
-1.206939e-09
3.666578e-09
-2.582476e-09
-4.030992e-06
-3.439591e-06
-3.129621e-06
-2.970467e-06
-2.895312e-06
-2.897043e-06
-2.923572e-06
-2.826360e-06
-2.477766e-06
-1.949390e-06
-1.475109e-06
-1.180584e-06
-1.010850e-06
-8.754358e-07
-7.411811e-07
-6.469363e-07
-5.849374e-07
-4.889532e-07
-3.544728e-07
-2.115878e-07
-9.956694e-08
-4.324255e-08
-1.052142e-08
-2.135923e-09
-8.066819e-09
2.479654e-09
-1.270669e-10
-8.373566e-10
5.259317e-09
4.302511e-10
-3.643375e-06
-3.141048e-06
-2.955155e-06
-2.862997e-06
-2.805236e-06
-2.741329e-06
-2.619617e-06
-2.339336e-06
-1.930370e-06
-1.560712e-06
-1.318489e-06
-1.155517e-06
-1.006747e-06
-8.548158e-07
-7.405618e-07
-6.673686e-07
-5.745012e-07
-4.397078e-07
-2.846515e-07
-1.478276e-07
-6.669106e-08
-2.660404e-08
-5.639051e-09
-8.609007e-10
-4.271342e-10
-1.563713e-09
-1.359519e-09
-1.098876e-09
-4.002848e-09
-3.060626e-09
-3.098449e-06
-3.100167e-06
-2.971272e-06
-2.824517e-06
-2.681044e-06
-2.550006e-06
-2.317573e-06
-1.973238e-06
-1.660059e-06
-1.447199e-06
-1.285643e-06
-1.123249e-06
-9.578106e-07
-8.317241e-07
-7.497470e-07
-6.539231e-07
-5.174427e-07
-3.551496e-07
-2.001207e-07
-9.630357e-08
-4.010389e-08
-1.127187e-08
-7.251355e-09
-2.856117e-10
3.596193e-09
-3.448663e-09
3.427375e-09
2.215739e-09
-1.671762e-09
2.113576e-09
-2.647366e-06
-2.729584e-06
-2.686922e-06
-2.591358e-06
-2.502684e-06
-2.314442e-06
-2.015763e-06
-1.745501e-06
-1.553741e-06
-1.387713e-06
-1.211775e-06
-1.040348e-06
-9.128764e-07
-8.259432e-07
-7.252643e-07
-5.844195e-07
-4.156108e-07
-2.484427e-07
-1.265653e-07
-5.802103e-08
-1.876475e-08
-5.386339e-09
-4.989719e-09
8.838030e-10
1.742862e-10
-2.197652e-09
1.593863e-09
-7.917301e-10
1.846894e-09
2.806717e-09
-2.307079e-06
-2.433932e-06
-2.445512e-06
-2.415117e-06
-2.273531e-06
-2.031471e-06
-1.803253e-06
-1.618308e-06
-1.439640e-06
-1.257338e-06
-1.095044e-06
-9.789385e-07
-8.911685e-07
-7.826623e-07
-6.349600e-07
-4.600470e-07
-2.855699e-07
-1.528641e-07
-7.320244e-08
-2.775765e-08
-9.328305e-09
-4.088600e-09
8.795927e-10
-1.033439e-09
-7.180687e-10
2.116004e-09
-2.472049e-09
-2.152330e-09
4.507659e-10
-1.461657e-09
-2.122285e-06
-2.167412e-06
-2.182438e-06
-2.116072e-06
-1.962907e-06
-1.777793e-06
-1.594334e-06
-1.417505e-06
-1.255700e-06
-1.123985e-06
-1.027884e-06
-9.390167e-07
-8.194276e-07
-6.624792e-07
-4.823953e-07
-3.056811e-07
-1.695987e-07
-8.487388e-08
-3.430772e-08
-1.144695e-08
-6.587294e-09
-4.499818e-10
1.460942e-09
-2.761773e-09
1.201397e-09
2.120184e-09
-1.710912e-09
1.798474e-09
-2.683715e-10
-8.271700e-10
-1.876092e-06
-1.919405e-06
-1.922992e-06
-1.840306e-06
-1.673773e-06
-1.496287e-06
-1.348337e-06
-1.229653e-06
-1.134910e-06
-1.053419e-06
-9.564343e-07
-8.226114e-07
-6.570772e-07
-4.757357e-07
-3.041683e-07
-1.735140e-07
-8.980234e-08
-3.859451e-08
-1.379451e-08
-6.516610e-09
-1.511670e-09
7.179770e-10
-1.061338e-09
-1.334116e-11
3.244386e-10
-1.091877e-09
6.378892e-10
1.203339e-09
-1.317769e-09
8.274888e-11
-1.716060e-06
-1.732405e-06
-1.663150e-06
-1.503308e-06
-1.356626e-06
-1.259640e-06
-1.187439e-06
-1.119860e-06
-1.040219e-06
-9.284516e-07
-7.810315e-07
-6.113757e-07
-4.359157e-07
-2.784173e-07
-1.618644e-07
-8.589263e-08
-3.813555e-08
-1.481135e-08
-7.589906e-09
-1.931867e-09
1.012235e-09
-1.587950e-09
-3.713400e-11
2.000330e-09
-1.692073e-09
-6.555415e-10
1.422671e-09
-1.524785e-09
-2.421125e-11
4.486570e-10
-1.468553e-06
-1.429754e-06
-1.323889e-06
-1.233248e-06
-1.177621e-06
-1.126578e-06
-1.060011e-06
-9.647450e-07
-8.354842e-07
-6.827295e-07
-5.214159e-07
-3.653656e-07
-2.335336e-07
-1.384801e-07
-7.454048e-08
-3.339407e-08
-1.354106e-08
-6.908834e-09
-1.929893e-09
7.035232e-10
-1.143675e-09
-9.139156e-10
1.183785e-09
-3.495434e-11
-7.430006e-10
9.757997e-10
3.351392e-11
-1.026318e-09
1.538043e-09
4.441044e-10
-1.306492e-06
-1.231993e-06
-1.137532e-06
-1.063439e-06
-9.920847e-07
-9.055774e-07
-7.950217e-07
-6.654210e-07
-5.289997e-07
-3.947850e-07
-2.726705e-07
-1.754069e-07
-1.062156e-07
-5.779241e-08
-2.666619e-08
-1.239461e-08
-6.684902e-09
-1.353405e-09
9.903166e-10
-8.776562e-10
-4.360627e-10
1.265028e-09
-7.119862e-10
-1.055052e-09
1.188776e-09
-1.277295e-10
-8.554146e-10
9.028148e-10
5.656894e-11
-4.675924e-10
-9.476739e-07
-8.482212e-07
-7.682146e-07
-7.010573e-07
-6.267200e-07
-5.394890e-07
-4.458703e-07
-3.516973e-07
-2.609060e-07
-1.811436e-07
-1.189673e-07
-7.253567e-08
-3.820356e-08
-1.748946e-08
-9.243474e-09
-5.261959e-09
-1.072960e-09
1.056393e-10
-1.438259e-09
-5.412329e-10
1.478036e-09
2.390125e-10
-1.015248e-09
5.231929e-10
4.710505e-10
-1.208158e-09
1.716974e-10
1.165458e-09
-1.201824e-09
-4.143792e-10
-4.618764e-07
-4.115700e-07
-3.794671e-07
-3.444390e-07
-3.014975e-07
-2.526223e-07
-1.998777e-07
-1.480674e-07
-1.038746e-07
-6.927112e-08
-4.198621e-08
-2.231749e-08
-1.202133e-08
-7.519547e-09
-3.086698e-09
7.789188e-10
6.151805e-10
-1.266627e-09
-5.005422e-10
7.354370e-10
-5.594526e-10
-8.754442e-10
9.633006e-10
6.247221e-10
-7.840281e-10
6.375883e-11
4.728754e-10
-3.605441e-10
-2.021613e-10
3.027910e-10
-1.898208e-07
-1.669663e-07
-1.532447e-07
-1.370780e-07
-1.166456e-07
-9.335076e-08
-7.116719e-08
-5.203021e-08
-3.492193e-08
-2.020871e-08
-1.079853e-08
-6.971920e-09
-4.626306e-09
-1.447237e-09
2.221270e-10
-7.333982e-10
-1.097500e-09
7.533626e-10
1.517705e-09
-3.470868e-10
-1.185181e-09
2.274717e-10
3.579975e-10
-7.766017e-10
1.227327e-10
1.192251e-09
-4.492895e-10
-1.002008e-09
8.703132e-10
2.912620e-10
-5.538573e-08
-4.944489e-08
-4.641403e-08
-4.096032e-08
-3.412560e-08
-2.723230e-08
-2.014397e-08
-1.335788e-08
-8.816665e-09
-7.059594e-09
-5.535655e-09
-2.177498e-09
9.508491e-10
9.069373e-10
-9.866993e-10
-1.185495e-09
3.067698e-10
5.327551e-10
-5.556882e-10
-1.605441e-10
1.155616e-09
3.925570e-10
-1.134060e-09
-4.846021e-10
6.163038e-10
1.423810e-10
-2.816991e-10
1.469733e-10
3.361405e-10
-2.349357e-10
-1.582953e-08
-1.412357e-08
-1.323320e-08
-1.223098e-08
-1.056118e-08
-8.079742e-09
-5.759031e-09
-4.222668e-09
-2.735341e-09
-6.359439e-10
9.185888e-10
3.036749e-10
-1.480109e-09
-1.573290e-09
4.116049e-10
1.586655e-09
2.549931e-10
-1.348458e-09
-7.251812e-10
6.954111e-10
4.312209e-10
-3.566185e-10
2.760963e-10
6.750176e-10
-5.959830e-10
-9.836326e-10
5.735974e-10
8.171918e-10
-5.126126e-10
-3.109407e-10
-3.150497e-09
-2.729826e-09
-2.411301e-09
-1.567539e-09
-8.857527e-10
-8.366091e-10
-9.075077e-10
-4.914832e-10
1.307135e-10
1.222547e-10
-5.632413e-10
-8.070612e-10
-1.279825e-11
7.388215e-10
3.007364e-10
-6.461305e-10
-5.237824e-10
5.841338e-10
7.540211e-10
-5.628709e-10
-1.165196e-09
9.583920e-11
1.064892e-09
3.224459e-10
-4.675385e-10
-2.026229e-10
1.089659e-10
-1.021021e-10
-2.551187e-10
1.970432e-10
-6.248079e-10
-8.425873e-10
-1.178157e-09
-1.584693e-09
-1.487414e-09
-6.615706e-10
2.534675e-10
4.079441e-10
-2.873503e-10
-8.846421e-10
-3.768273e-10
8.271975e-10
1.179582e-09
1.253883e-10
-9.659110e-10
-6.372502e-10
5.238624e-10
7.098488e-10
-2.122897e-10
-5.052497e-10
1.986750e-10
2.252861e-10
-6.120049e-10
-3.895684e-10
8.642655e-10
7.696436e-10
-6.262123e-10
-7.992466e-10
1.500042e-10
4.401007e-10
-1.430634e-10
1.567185e-10
6.237626e-10
9.621699e-10
6.416081e-10
-3.851002e-10
-1.363399e-09
-1.365174e-09
-2.058364e-10
1.105901e-09
1.122518e-09
-2.443157e-10
-1.250519e-09
-5.296822e-10
9.108345e-10
1.045872e-09
-2.624937e-10
-1.061854e-09
-2.089591e-10
9.155357e-10
6.075520e-10
-5.037783e-10
-7.073859e-10
-2.479010e-11
3.282243e-10
1.921838e-10
7.809459e-11
-4.649879e-11
-1.288349e-10
-1.332366e-11
6.543282e-11
-2.560775e-10
-8.258842e-10
-1.028588e-09
-4.510114e-10
7.291828e-10
1.661313e-09
1.491715e-09
1.664773e-10
-1.309485e-09
-1.586537e-09
-4.452955e-10
7.662299e-10
7.937890e-10
-1.484841e-11
-5.164781e-10
-2.885624e-10
2.386382e-10
4.265231e-10
2.104952e-11
-3.762165e-10
8.030746e-12
5.885772e-10
9.299741e-11
-8.684141e-10
-5.001159e-10
6.679556e-10
7.091782e-10
-1.590290e-11
-4.725903e-10
-1.022293e-11
3.449902e-10
9.542448e-10
9.662693e-10
1.826261e-10
-1.000675e-09
-1.753685e-09
-1.468223e-09
-3.403503e-10
7.619286e-10
1.041116e-09
4.888501e-10
-2.533945e-10
-7.009273e-10
-6.969172e-10
-9.649628e-11
7.214709e-10
6.787025e-10
-3.371997e-10
-7.957811e-10
3.908623e-11
7.462047e-10
2.622463e-10
-3.836965e-10
-2.474301e-10
-6.332899e-11
-1.957218e-10
2.340838e-10
6.551707e-10
-2.649151e-10
-2.433434e-10
-5.788505e-10
-1.058357e-09
-7.135512e-10
2.753542e-10
1.286937e-09
1.663928e-09
1.200157e-09
3.816851e-10
-1.655387e-10
-3.770437e-10
-5.612018e-10
-6.033455e-10
-8.090953e-11
6.240039e-10
4.891692e-10
-3.630840e-10
-6.116842e-10
3.028681e-11
4.537782e-10
1.776576e-10
-2.448233e-10
-3.409288e-10
1.019483e-10
6.162175e-10
1.327527e-10
-7.042066e-10
-3.146622e-10
3.080467e-10
2.325431e-10
9.838650e-11
4.637395e-10
7.130632e-10
-5.755600e-11
-1.097503e-09
-1.588860e-09
-1.257017e-09
-4.557379e-10
4.801236e-11
-6.104232e-11
-1.486853e-10
3.724232e-10
8.905702e-10
4.898601e-10
-3.922746e-10
-6.609656e-10
-3.204039e-10
5.135448e-11
3.906951e-10
4.105226e-10
-2.737062e-10
-7.434032e-10
-1.712404e-11
7.604073e-10
2.330534e-10
-3.620857e-10
1.322459e-10
-5.459540e-11
-9.202181e-10
3.479822e-10
-2.403090e-09
-2.683470e-09
-2.464221e-09
-9.357209e-10
3.788889e-10
5.088737e-10
-2.701394e-10
-1.017592e-09
-8.434731e-10
1.495606e-10
7.790643e-10
3.378267e-10
-3.628009e-10
-4.081453e-10
-1.174653e-10
8.893164e-11
3.621080e-10
2.916685e-10
-4.078255e-10
-6.189756e-10
8.997987e-11
4.382660e-10
1.308770e-10
-1.320263e-10
-3.306038e-10
6.480152e-11
7.357296e-10
-1.411848e-10
-9.306590e-10
1.888701e-10
-4.671305e-09
-4.120533e-09
-4.884706e-09
-6.779161e-09
-7.297234e-09
-5.634851e-09
-3.009489e-09
-1.049724e-09
-6.635643e-10
-1.337679e-09
-1.632568e-09
-9.733456e-10
-1.512295e-10
3.204167e-10
6.594088e-10
5.450956e-10
-2.308160e-10
-6.346918e-10
-2.313062e-10
5.111599e-11
1.521129e-10
4.927984e-10
1.516208e-10
-8.510974e-10
-4.092290e-10
9.505863e-10
2.405655e-10
-7.358766e-10
4.960431e-10
7.290700e-11
-2.389486e-08
-2.223424e-08
-1.994500e-08
-1.624931e-08
-1.410922e-08
-1.386296e-08
-1.355968e-08
-1.169752e-08
-8.234325e-09
-4.496072e-09
-2.013825e-09
-9.169220e-10
-3.643814e-10
-2.330515e-10
-5.538164e-10
-5.007302e-10
4.037453e-11
2.606146e-10
3.046672e-10
2.952677e-10
-2.306242e-10
-4.261449e-10
1.347025e-11
-1.668918e-12
1.616354e-10
2.863771e-10
-7.173516e-10
-8.582133e-11
1.380712e-09
-2.682213e-10
-5.764116e-08
-5.447588e-08
-5.711339e-08
-5.977603e-08
-5.661776e-08
-4.841308e-08
-3.885098e-08
-3.027521e-08
-2.315943e-08
-1.693449e-08
-1.121650e-08
-6.711461e-09
-3.946806e-09
-2.098700e-09
-6.627348e-10
-5.068743e-11
2.121742e-10
5.635586e-10
2.079857e-10
-4.376798e-10
-2.113779e-10
-6.763444e-11
-3.845977e-10
4.442916e-10
9.056869e-10
-1.002617e-09
-1.049030e-09
1.465667e-09
6.115716e-10
-7.592914e-10
-1.332281e-07
-1.223376e-07
-1.182545e-07
-1.191179e-07
-1.229179e-07
-1.230220e-07
-1.140995e-07
-9.680669e-08
-7.535523e-08
-5.433909e-08
-3.665366e-08
-2.279137e-08
-1.262357e-08
-6.308369e-09
-2.829460e-09
-8.975454e-10
-4.111999e-10
-5.450142e-10
-2.147674e-10
9.144101e-11
2.392148e-10
1.459919e-10
-3.344778e-10
1.765835e-10
2.754132e-10
-9.820503e-10
3.170579e-10
1.249614e-09
-1.135510e-09
-4.213800e-10
-1.961649e-07
-1.920209e-07
-2.062384e-07
-2.259157e-07
-2.382344e-07
-2.424694e-07
-2.379953e-07
-2.208067e-07
-1.898523e-07
-1.494113e-07
-1.069194e-07
-6.974085e-08
-4.159225e-08
-2.249289e-08
-1.137304e-08
-5.673621e-09
-2.204477e-09
-4.900935e-10
-2.894215e-10
2.735359e-10
5.614399e-10
-3.084103e-10
-6.866209e-11
3.297124e-10
-1.069445e-09
-1.691908e-11
1.974083e-09
-9.084985e-10
-1.821349e-09
8.532779e-10
-1.547598e-07
-1.609102e-07
-1.846087e-07
-2.419693e-07
-3.175623e-07
-3.804846e-07
-4.138447e-07
-4.152503e-07
-3.861773e-07
-3.311460e-07
-2.598897e-07
-1.852025e-07
-1.193262e-07
-6.939624e-08
-3.589452e-08
-1.649815e-08
-7.168073e-09
-2.658261e-09
-5.693088e-10
-1.294345e-10
-1.774947e-10
-1.410818e-10
5.105606e-10
-6.571397e-11
-1.129273e-09
1.150999e-09
8.457390e-10
-2.262375e-09
2.881915e-10
1.314550e-09
-2.023094e-08
-5.504073e-08
-1.081952e-07
-1.776648e-07
-2.746459e-07
-3.975596e-07
-5.185272e-07
-6.028401e-07
-6.310083e-07
-5.996486e-07
-5.174963e-07
-4.040066e-07
-2.835942e-07
-1.782980e-07
-1.005335e-07
-5.010189e-08
-2.185606e-08
-9.444744e-09
-3.640400e-09
-4.310800e-10
-6.228848e-10
-2.485960e-10
1.043214e-09
-5.988554e-10
-2.433877e-10
1.361737e-09
-1.848863e-09
-8.898504e-10
2.696300e-09
-1.455902e-10
1.706773e-07
1.361403e-07
3.859676e-08
-1.005527e-07
-2.555207e-07
-4.052732e-07
-5.525320e-07
-6.966666e-07
-8.113442e-07
-8.631283e-07
-8.331976e-07
-7.252290e-07
-5.655008e-07
-3.922052e-07
-2.407139e-07
-1.312209e-07
-6.323477e-08
-2.634242e-08
-9.966896e-09
-3.649774e-09
-1.076707e-09
1.248760e-10
9.686949e-11
-3.142417e-10
1.060372e-09
-5.979773e-10
-2.004049e-09
2.388013e-09
8.360174e-10
-1.698057e-09
3.697397e-07
3.774362e-07
2.530303e-07
4.978117e-08
-2.006738e-07
-4.626067e-07
-6.801727e-07
-8.383468e-07
-9.632658e-07
-1.063475e-06
-1.111273e-06
-1.071147e-06
-9.322431e-07
-7.222518e-07
-4.924745e-07
-2.931244e-07
-1.536396e-07
-7.051423e-08
-2.671956e-08
-1.041926e-08
-4.393062e-09
7.266225e-10
-4.374267e-10
-7.640718e-10
1.746713e-09
-1.788099e-09
7.485192e-11
3.069947e-09
-3.210695e-09
-9.665246e-10
7.421982e-07
7.771349e-07
6.046652e-07
2.742070e-07
-1.013007e-07
-4.742497e-07
-8.238078e-07
-1.092219e-06
-1.243549e-06
-1.314264e-06
-1.354967e-06
-1.363379e-06
-1.293903e-06
-1.114785e-06
-8.502471e-07
-5.655398e-07
-3.245924e-07
-1.613980e-07
-7.001045e-08
-2.635960e-08
-8.940732e-09
-2.002823e-09
-6.272835e-10
-6.267357e-10
-1.542416e-10
3.049001e-10
1.865085e-09
-1.940843e-09
-2.239775e-09
1.834333e-09
1.247441e-06
1.369822e-06
1.107932e-06
5.850454e-07
-2.256029e-08
-5.623013e-07
-9.967240e-07
-1.352917e-06
-1.608260e-06
-1.715995e-06
-1.704592e-06
-1.655271e-06
-1.597610e-06
-1.481420e-06
-1.252366e-06
-9.317456e-07
-5.979940e-07
-3.254245e-07
-1.537540e-07
-6.429881e-08
-1.912241e-08
-6.700397e-09
-4.539575e-09
1.375715e-09
-9.292002e-10
1.324649e-09
2.338273e-09
-5.814073e-09
2.750568e-09
3.316868e-09
2.104038e-06
2.192960e-06
1.633927e-06
8.217677e-07
-4.650690e-08
-8.356011e-07
-1.417810e-06
-1.783498e-06
-2.023998e-06
-2.175511e-06
-2.189368e-06
-2.073008e-06
-1.921411e-06
-1.787268e-06
-1.614499e-06
-1.328575e-06
-9.511959e-07
-5.800461e-07
-2.989437e-07
-1.319319e-07
-4.756737e-08
-1.560251e-08
-8.067437e-09
6.877381e-10
1.866060e-09
-8.437516e-10
-9.277598e-10
-8.343182e-10
2.649237e-09
-6.638575e-10
3.792348e-06
3.189960e-06
2.004446e-06
8.520959e-07
-1.696761e-07
-1.112650e-06
-1.928780e-06
-2.466917e-06
-2.685009e-06
-2.728141e-06
-2.710658e-06
-2.593535e-06
-2.360386e-06
-2.111287e-06
-1.908423e-06
-1.678219e-06
-1.328104e-06
-9.035258e-07
-5.196777e-07
-2.438862e-07
-9.853476e-08
-3.872817e-08
-8.561625e-09
-2.169637e-09
-1.192837e-10
-5.418164e-10
-4.937790e-09
6.561309e-09
-1.062959e-09
-5.449970e-09
6.077499e-06
3.506784e-06
1.734370e-06
5.638449e-07
-3.570233e-07
-1.173997e-06
-2.020908e-06
-2.846338e-06
-3.381505e-06
-3.478504e-06
-3.321432e-06
-3.124617e-06
-2.869464e-06
-2.526984e-06
-2.202422e-06
-1.947986e-06
-1.659116e-06
-1.250327e-06
-7.953150e-07
-4.148794e-07
-1.807997e-07
-7.462454e-08
-1.720148e-08
-3.207787e-09
-7.260064e-09
2.006884e-09
-1.114396e-09
4.174952e-09
-5.656518e-10
-3.005667e-09
7.795070e-06
3.552088e-06
1.600136e-06
4.179260e-07
-3.512396e-07
-9.136481e-07
-1.489505e-06
-2.295199e-06
-3.258877e-06
-3.926719e-06
-3.993749e-06
-3.696162e-06
-3.354680e-06
-2.983348e-06
-2.557405e-06
-2.190014e-06
-1.902548e-06
-1.559937e-06
-1.091761e-06
-6.314999e-07
-3.083181e-07
-1.208070e-07
-3.703360e-08
-1.099196e-08
-6.984518e-09
-6.771629e-10
5.248320e-09
-4.092041e-09
4.405918e-10
3.404545e-09
7.082544e-06
4.247219e-06
2.093067e-06
6.357232e-07
-2.481147e-07
-7.109289e-07
-8.842718e-07
-1.130113e-06
-1.893670e-06
-3.113194e-06
-4.032129e-06
-4.163612e-06
-3.806650e-06
-3.383072e-06
-2.931035e-06
-2.458644e-06
-2.090195e-06
-1.779801e-06
-1.366869e-06
-8.710443e-07
-4.673896e-07
-1.904492e-07
-6.336004e-08
-3.058057e-08
-1.115636e-09
-4.425888e-09
2.492034e-09
-1.498672e-09
-1.123968e-09
6.405178e-09
5.746105e-06
4.004276e-06
2.152861e-06
7.933804e-07
-1.276376e-07
-7.381825e-07
-9.600990e-07
-7.130525e-07
-4.498312e-07
-1.064883e-06
-2.545392e-06
-3.749734e-06
-4.004084e-06
-3.667936e-06
-3.228715e-06
-2.730619e-06
-2.269653e-06
-1.918007e-06
-1.569357e-06
-1.107995e-06
-6.333221e-07
-2.854489e-07
-1.069767e-07
-4.659302e-08
-2.937186e-09
-2.445863e-09
-4.407949e-09
6.757914e-09
-3.409157e-09
2.409350e-10
5.419708e-06
3.062575e-06
1.694764e-06
6.773464e-07
2.048976e-08
-3.215712e-07
-7.004942e-07
-9.141272e-07
-4.339358e-07
3.521531e-07
-6.171246e-08
-1.715255e-06
-3.167048e-06
-3.566172e-06
-3.341867e-06
-2.919979e-06
-2.436540e-06
-2.015870e-06
-1.683573e-06
-1.296327e-06
-7.969186e-07
-3.909294e-07
-1.707057e-07
-5.313156e-08
-1.258797e-08
-4.660511e-09
-2.362209e-09
2.531631e-09
-1.760686e-09
-5.323527e-09
3.837728e-06
2.437001e-06
9.694901e-07
2.686615e-07
-2.081772e-07
-2.732364e-07
-6.037378e-08
-9.311238e-08
-4.608423e-07
6.862697e-08
1.175034e-06
9.542521e-07
-7.547014e-07
-2.338567e-06
-2.945939e-06
-2.873754e-06
-2.517457e-06
-2.088179e-06
-1.729208e-06
-1.403990e-06
-9.397414e-07
-4.987950e-07
-2.325426e-07
-6.709656e-08
-2.334836e-08
-1.281342e-08
8.115110e-09
-8.460971e-09
4.270144e-09
-1.744957e-09
2.784646e-06
1.188361e-06
3.555616e-07
-2.529382e-07
-3.098723e-07
-3.002464e-07
-1.442653e-07
4.876132e-07
8.105709e-07
3.500025e-07
8.034201e-07
1.953657e-06
1.869873e-06
2.974426e-07
-1.359963e-06
-2.206734e-06
-2.317886e-06
-2.077304e-06
-1.720872e-06
-1.431511e-06
-1.034739e-06
-5.969725e-07
-2.812420e-07
-9.365754e-08
-3.514552e-08
-1.195723e-08
8.759585e-09
-1.277071e-08
6.061663e-09
2.186603e-10
1.310362e-06
-4.868888e-07
-6.896471e-07
-6.546587e-07
-3.746299e-07
5.524139e-08
5.079766e-07
5.330289e-07
1.303167e-06
1.777342e-06
1.428411e-06
1.701953e-06
2.608040e-06
2.680222e-06
1.385357e-06
-3.156506e-07
-1.388695e-06
-1.746110e-06
-1.612977e-06
-1.379036e-06
-1.066374e-06
-6.636531e-07
-3.225124e-07
-1.192206e-07
-4.817953e-08
-3.126692e-09
-5.176491e-09
-6.086610e-09
5.968585e-09
-3.180232e-09
-8.417123e-07
-1.728856e-06
-2.127541e-06
-1.365929e-06
-3.121532e-07
1.935897e-07
1.007306e-06
1.678420e-06
1.644965e-06
2.220085e-06
2.695955e-06
2.642674e-06
2.634661e-06
3.156756e-06
3.394367e-06
2.416713e-06
7.638723e-07
-5.769398e-07
-1.143377e-06
-1.184582e-06
-1.009175e-06
-6.830132e-07
-3.515662e-07
-1.362625e-07
-5.761372e-08
-5.919516e-10
-1.486017e-08
3.073724e-09
3.840983e-09
-8.370537e-09
-3.261664e-06
-3.973751e-06
-2.708823e-06
-1.605831e-06
-5.608096e-07
1.087314e-06
1.452298e-06
2.156170e-06
2.877933e-06
2.979993e-06
3.111813e-06
3.567255e-06
3.804720e-06
3.531096e-06
3.686554e-06
3.963378e-06
3.358624e-06
1.789443e-06
2.471458e-07
-5.558446e-07
-7.559818e-07
-6.206034e-07
-3.490213e-07
-1.444468e-07
-5.962189e-08
-6.406779e-09
-1.230888e-08
4.240292e-09
-1.306831e-09
-5.023237e-09
-6.970996e-06
-5.954870e-06
-4.022403e-06
-1.436256e-06
4.532094e-07
1.552794e-06
2.525490e-06
3.180379e-06
3.459657e-06
3.773930e-06
4.309139e-06
4.055868e-06
4.319509e-06
4.755489e-06
4.445017e-06
4.170157e-06
4.405146e-06
4.159835e-06
2.734119e-06
1.063213e-06
4.379012e-08
-3.252923e-07
-2.637492e-07
-1.294870e-07
-5.413080e-08
-1.055374e-08
-8.383821e-09
2.388798e-09
-3.807325e-09
4.582467e-09
-1.213720e-05
-8.024473e-06
-3.313474e-06
-5.239094e-07
1.322627e-06
2.387256e-06
3.549392e-06
3.957193e-06
4.363709e-06
4.787348e-06
4.786641e-06
5.024759e-06
5.212252e-06
5.094521e-06
5.263725e-06
5.379545e-06
4.685274e-06
4.685049e-06
4.808268e-06
3.588201e-06
1.895585e-06
6.268345e-07
9.336055e-08
-1.634598e-08
-2.792475e-08
-3.787506e-09
-8.343941e-09
4.081108e-09
-4.974826e-09
4.803794e-09
-1.867395e-05
-8.434942e-06
-1.938206e-06
7.237525e-07
2.502574e-06
3.676761e-06
4.327780e-06
4.939284e-06
5.256783e-06
5.465196e-06
5.667350e-06
5.812565e-06
5.742013e-06
5.981691e-06
5.910043e-06
5.777075e-06
5.812696e-06
5.397075e-06
5.022269e-06
5.080984e-06
4.470616e-06
2.670781e-06
1.190563e-06
4.356008e-07
1.116202e-07
3.740563e-08
2.623862e-10
5.266241e-09
-3.014126e-09
2.893793e-09
SCALARS DxRZ double 1
LOOKUP_TABLE dxrz
3.227027e-07
1.058408e-07
3.625250e-07
1.602134e-07
1.888946e-07
-8.010848e-08
2.783325e-07
-1.668690e-07
1.995478e-07
4.541853e-08
-1.374757e-07
3.798455e-07
-4.958761e-07
-2.678262e-07
3.144098e-08
-2.442257e-07
7.200063e-08
-6.124274e-08
1.220668e-07
-4.343046e-07
6.921384e-07
-8.075696e-08
-1.456859e-06
-9.360951e-07
-5.439310e-07
-1.803956e-07
-5.056254e-08
-2.166738e-08
3.850892e-09
-4.696757e-09
6.288116e-07
-1.348531e-07
5.890434e-08
4.012595e-07
8.515219e-08
1.165101e-07
4.492593e-07
-2.771465e-07
7.409859e-07
-2.455620e-07
1.835651e-07
1.331103e-07
-6.355642e-07
-9.734804e-07
-3.788126e-07
-3.993211e-07
-5.313781e-08
-3.365673e-07
2.534485e-07
-1.260951e-07
-9.587914e-09
-8.978588e-07
-1.980118e-06
-1.090130e-06
-6.027469e-07
-1.797785e-07
-5.525421e-08
-2.015510e-08
1.730069e-09
-2.746789e-09
2.843831e-07
-8.448583e-07
4.419468e-07
5.320656e-07
8.174642e-08
5.177674e-07
1.504504e-07
2.039024e-07
4.800986e-07
-8.792098e-08
1.117801e-07
-1.638793e-08
-9.875836e-07
-9.455401e-07
-7.762203e-07
-6.667386e-07
-3.162431e-07
-3.485225e-08
2.079149e-07
-1.144351e-06
-6.843789e-07
-1.271918e-06
-2.011899e-06
-1.085790e-06
-6.204932e-07
-1.764599e-07
-6.289593e-08
-1.589489e-08
-4.227100e-09
3.461886e-09
-2.648485e-07
-4.833762e-07
6.866399e-07
4.780406e-07
2.396346e-07
4.034688e-07
2.447675e-07
2.551544e-07
4.096929e-07
-1.149999e-07
1.027636e-07
-4.657715e-07
-8.287091e-07
-1.097352e-06
-1.288987e-06
-5.190677e-07
-2.307714e-07
-4.199745e-07
-7.115263e-07
-1.888768e-06
-1.041200e-06
-1.275465e-06
-1.887429e-06
-1.041653e-06
-5.837390e-07
-1.818470e-07
-5.176776e-08
-2.447207e-08
4.759732e-09
2.621029e-09
-2.695896e-07
-3.833982e-07
5.458359e-07
9.032303e-07
1.004162e-07
4.034641e-07
1.872557e-07
3.939324e-07
2.087451e-07
-2.392176e-07
1.141067e-07
-7.092798e-07
-9.609001e-07
-1.397287e-06
-1.034850e-06
-5.056846e-07
-8.881233e-07
-1.268713e-06
-1.418423e-06
-2.182346e-06
-1.094439e-06
-1.119556e-06
-1.737708e-06
-9.842286e-07
-5.503056e-07
-1.844682e-07
-4.360589e-08
-3.051269e-08
3.752747e-09
1.881348e-09
-6.923315e-08
-2.932671e-07
1.036000e-06
8.695364e-07
-1.979478e-07
4.790899e-07
2.847956e-07
2.205646e-07
1.262185e-08
-2.812023e-08
-2.883905e-07
-9.878125e-07
-9.967514e-07
-1.278477e-06
-1.044131e-06
-1.282834e-06
-1.720722e-06
-1.804111e-06
-1.679058e-06
-2.242667e-06
-1.007302e-06
-9.170831e-07
-1.592349e-06
-9.300099e-07
-5.198890e-07
-1.837273e-07
-4.517794e-08
-1.758034e-08
-4.833130e-09
-5.108248e-09
-4.678744e-07
-1.885311e-07
9.161013e-07
7.702273e-07
-2.320413e-07
4.815799e-07
1.984083e-07
5.141125e-08
1.161159e-07
-4.164736e-07
-6.640538e-07
-8.243286e-07
-1.068415e-06
-1.546378e-06
-1.736744e-06
-2.067394e-06
-2.117352e-06
-1.962916e-06
-1.734986e-06
-2.196076e-06
-8.535931e-07
-6.995415e-07
-1.463567e-06
-8.796189e-07
-4.964140e-07
-1.774084e-07
-5.338437e-08
-1.279176e-08
-2.727070e-09
7.264254e-09
1.420760e-07
-3.240455e-08
8.249837e-07
6.467043e-07
-3.007223e-07
4.943648e-07
1.171401e-07
-4.194748e-08
-2.637689e-07
-7.253638e-07
-4.412919e-07
-1.044559e-06
-1.714231e-06
-2.186872e-06
-2.353531e-06
-2.378819e-06
-2.163815e-06
-1.957779e-06
-1.716606e-06
-2.089424e-06
-6.414705e-07
-4.931219e-07
-1.353300e-06
-8.290096e-07
-4.885208e-07
-1.665133e-07
-4.994579e-08
-2.081937e-08
-7.804938e-09
1.195848e-08
-4.629885e-07
-4.189833e-07
7.010065e-07
7.211301e-07
-2.452519e-07
3.403347e-07
-1.314288e-07
-4.217552e-07
-4.341136e-07
-5.712476e-07
-8.315045e-07
-1.987880e-06
-2.397622e-06
-2.607840e-06
-2.556030e-06
-2.363535e-06
-2.066209e-06
-1.912987e-06
-1.649855e-06
-1.920304e-06
-3.863930e-07
-3.147391e-07
-1.259832e-06
-7.843882e-07
-4.868035e-07
-1.626726e-07
-4.572578e-08
-1.582939e-08
-8.143998e-09
1.361467e-08
-4.367646e-08
-1.584323e-07
9.024149e-07
6.274536e-07
-5.299647e-07
4.216958e-08
-4.216779e-07
-5.088339e-07
-4.431730e-07
-1.194982e-06
-1.935516e-06
-2.710024e-06
-2.661638e-06
-2.690553e-06
-2.487843e-06
-2.202741e-06
-1.947797e-06
-1.851831e-06
-1.519736e-06
-1.680963e-06
-1.294018e-07
-1.633885e-07
-1.184978e-06
-7.558518e-07
-4.772767e-07
-1.626779e-07
-5.294929e-08
-1.172647e-08
-8.437468e-09
1.277664e-08
3.905093e-08
-1.678439e-09
7.140270e-07
3.521746e-07
-7.689709e-07
-1.953070e-07
-5.958731e-07
-8.239627e-07
-1.331399e-06
-2.340697e-06
-2.599710e-06
-2.846028e-06
-2.633758e-06
-2.572471e-06
-2.281488e-06
-2.008523e-06
-1.852842e-06
-1.747045e-06
-1.303539e-06
-1.396479e-06
9.586072e-08
-3.589072e-08
-1.132910e-06
-7.407911e-07
-4.669913e-07
-1.595982e-07
-5.474420e-08
-1.283809e-08
-1.087430e-08
2.646726e-09
-4.546169e-07
-7.232587e-07
1.257865e-07
-1.330684e-07
-1.281538e-06
-7.163087e-07
-1.293231e-06
-1.874850e-06
-2.350977e-06
-2.807680e-06
-2.597515e-06
-2.724067e-06
-2.470517e-06
-2.325827e-06
-2.028648e-06
-1.856560e-06
-1.752617e-06
-1.556466e-06
-1.009486e-06
-1.115403e-06
2.793096e-07
6.035748e-08
-1.099547e-06
-7.299161e-07
-4.658137e-07
-1.573446e-07
-5.113372e-08
-1.422310e-08
-2.468679e-09
4.702116e-09
-7.594671e-07
-1.445764e-06
-6.164521e-07
-9.313801e-07
-2.026476e-06
-1.508388e-06
-2.192746e-06
-2.543073e-06
-2.511460e-06
-2.652805e-06
-2.405076e-06
-2.517045e-06
-2.185548e-06
-2.025768e-06
-1.826769e-06
-1.738478e-06
-1.579131e-06
-1.267187e-06
-6.890211e-07
-8.734481e-07
4.173091e-07
1.214264e-07
-1.076870e-06
-7.219129e-07
-4.673900e-07
-1.571620e-07
-5.043538e-08
-1.899707e-08
-1.129277e-09
5.587108e-09
-7.458076e-07
-1.543792e-06
-9.402617e-07
-1.234051e-06
-2.382952e-06
-1.919184e-06
-2.367213e-06
-2.375350e-06
-2.223120e-06
-2.408979e-06
-2.153447e-06
-2.192242e-06
-1.850225e-06
-1.789816e-06
-1.687517e-06
-1.568213e-06
-1.293500e-06
-9.248827e-07
-3.988702e-07
-6.879197e-07
5.081428e-07
1.573206e-07
-1.063478e-06
-7.185441e-07
-4.652512e-07
-1.584740e-07
-4.881196e-08
-1.904894e-08
-6.164347e-09
5.728476e-09
-4.680432e-07
-1.169859e-06
-5.387703e-07
-1.004107e-06
-2.258209e-06
-1.652563e-06
-1.964645e-06
-2.021032e-06
-1.952306e-06
-2.114971e-06
-1.791706e-06
-1.839132e-06
-1.601716e-06
-1.636280e-06
-1.510671e-06
-1.280558e-06
-9.356640e-07
-6.007232e-07
-1.734858e-07
-5.648176e-07
5.616747e-07
1.781013e-07
-1.058312e-06
-7.172392e-07
-4.629491e-07
-1.605957e-07
-4.734487e-08
-1.550481e-08
-6.887426e-09
9.820717e-09
-3.800532e-07
-8.662103e-07
-2.671581e-07
-6.946414e-07
-1.842774e-06
-1.240923e-06
-1.654683e-06
-1.747074e-06
-1.616852e-06
-1.728572e-06
-1.446169e-06
-1.602895e-06
-1.443452e-06
-1.444707e-06
-1.211702e-06
-9.108954e-07
-5.895428e-07
-3.463982e-07
-2.475758e-08
-4.937694e-07
5.910208e-07
1.876417e-07
-1.055499e-06
-7.166320e-07
-4.630624e-07
-1.602607e-07
-4.933264e-08
-1.507210e-08
-6.577409e-09
8.140062e-09
-3.731331e-07
-7.931882e-07
-2.298353e-08
-4.046927e-07
-1.589179e-06
-1.001878e-06
-1.356088e-06
-1.377188e-06
-1.244938e-06
-1.432533e-06
-1.247733e-06
-1.445255e-06
-1.229142e-06
-1.125741e-06
-8.318089e-07
-5.550276e-07
-3.201065e-07
-1.806445e-07
5.928954e-08
-4.565970e-07
6.041305e-07
1.912751e-07
-1.052971e-06
-7.172979e-07
-4.632381e-07
-1.581004e-07
-5.164638e-08
-1.528082e-08
-5.508301e-09
5.729967e-09
-3.318811e-07
-6.839278e-07
3.713327e-08
-2.969599e-07
-1.367898e-06
-6.872026e-07
-1.022452e-06
-1.093347e-06
-1.036260e-06
-1.276137e-06
-1.079628e-06
-1.196762e-06
-8.864826e-07
-7.422915e-07
-4.807115e-07
-2.872716e-07
-1.502402e-07
-8.975924e-08
1.017700e-07
-4.401695e-07
6.092993e-07
1.932451e-07
-1.052760e-06
-7.173686e-07
-4.631593e-07
-1.577217e-07
-5.105224e-08
-1.538379e-08
-4.989319e-09
6.000173e-09
-3.500598e-07
-7.063922e-07
1.452552e-07
-7.195086e-08
-1.117016e-06
-4.762844e-07
-8.604638e-07
-9.582877e-07
-8.918875e-07
-1.074897e-06
-7.897073e-07
-8.359749e-07
-5.123195e-07
-4.124844e-07
-2.315969e-07
-1.274853e-07
-6.204466e-08
-4.656190e-08
1.194540e-07
-4.340586e-07
6.123697e-07
1.935826e-07
-1.053286e-06
-7.161217e-07
-4.641467e-07
-1.586379e-07
-4.908453e-08
-1.665038e-08
-5.647129e-09
6.837040e-09
-3.114893e-07
-6.144984e-07
2.690843e-07
3.029942e-08
-1.039815e-06
-3.926762e-07
-7.444318e-07
-7.870547e-07
-6.443792e-07
-7.544339e-07
-4.344114e-07
-4.957163e-07
-2.245848e-07
-1.983174e-07
-9.324237e-08
-4.868979e-08
-2.196603e-08
-2.968155e-08
1.253251e-07
-4.315499e-07
6.129579e-07
1.934072e-07
-1.052665e-06
-7.157662e-07
-4.645938e-07
-1.588107e-07
-4.877797e-08
-1.711674e-08
-5.555531e-09
7.720220e-09
-3.470352e-07
-6.044155e-07
2.959403e-07
8.912596e-08
-9.343142e-07
-2.336263e-07
-5.242233e-07
-5.077763e-07
-3.306896e-07
-4.434532e-07
-1.560588e-07
-2.683405e-07
-5.863786e-08
-9.162648e-08
-3.110546e-08
-1.569162e-08
-7.094862e-09
-2.351533e-08
1.283711e-07
-4.311371e-07
6.122856e-07
1.939268e-07
-1.052825e-06
-7.164085e-07
-4.633183e-07
-1.588711e-07
-4.996869e-08
-1.589401e-08
-5.518882e-09
7.361675e-09
-3.087887e-07
-5.213213e-07
4.184283e-07
2.400283e-07
-7.493815e-07
-1.219550e-08
-2.799501e-07
-2.640988e-07
-1.059946e-07
-2.479241e-07
1.962718e-09
-1.538572e-07
1.581690e-08
-4.676146e-08
-7.156940e-09
-5.527875e-09
-2.997689e-09
-2.120018e-08
1.291746e-07
-4.308959e-07
6.130936e-07
1.940116e-07
-1.053767e-06
-7.165194e-07
-4.627142e-07
-1.592071e-07
-5.027137e-08
-1.497321e-08
-6.035596e-09
6.427056e-09
-2.602462e-07
-4.540021e-07
5.008070e-07
3.477887e-07
-6.187538e-07
1.283152e-07
-1.395772e-07
-1.296242e-07
1.460644e-08
-1.513834e-07
6.985856e-08
-1.098035e-07
4.334670e-08
-3.139187e-08
2.708753e-10
-1.546893e-09
-1.155718e-09
-2.166131e-08
1.283992e-07
-4.303836e-07
6.134944e-07
1.938923e-07
-1.053099e-06
-7.164534e-07
-4.638363e-07
-1.589230e-07
-4.965731e-08
-1.556472e-08
-5.812850e-09
6.427734e-09
-2.595801e-07
-4.417952e-07
5.359188e-07
3.995436e-07
-5.566851e-07
1.970026e-07
-7.096526e-08
-6.998944e-08
6.036205e-08
-1.179373e-07
9.467037e-08
-9.303717e-08
5.170817e-08
-2.829241e-08
2.070484e-09
-2.601518e-10
-6.625689e-10
-2.113115e-08
1.289075e-07
-4.310574e-07
6.123817e-07
1.941633e-07
-1.052170e-06
-7.165504e-07
-4.641454e-07
-1.584082e-07
-4.984171e-08
-1.648965e-08
-5.004456e-09
7.030635e-09
-2.577846e-07
-4.334631e-07
5.488467e-07
4.201294e-07
-5.303925e-07
2.229741e-07
-4.918009e-08
-5.248880e-08
7.441044e-08
-1.076712e-07
1.005588e-07
-8.990804e-08
5.480763e-08
-2.537663e-08
2.708433e-09
-1.423661e-09
-1.116194e-09
-2.038502e-08
1.294147e-07
-4.310229e-07
6.125392e-07
1.937489e-07
-1.053156e-06
-7.163129e-07
-4.630717e-07
-1.584724e-07
-5.028073e-08
-1.650271e-08
-5.166499e-09
7.309025e-09
-2.609060e-07
-4.347449e-07
5.511550e-07
4.234684e-07
-5.274843e-07
2.272221e-07
-4.267461e-08
-4.509979e-08
8.050772e-08
-1.041906e-07
1.018393e-07
-8.973888e-08
5.428885e-08
-2.588450e-08
3.414458e-09
5.791602e-11
-8.590008e-10
-2.168675e-08
1.286491e-07
-4.301142e-07
6.135304e-07
1.934550e-07
-1.053771e-06
-7.163349e-07
-4.631843e-07
-1.587002e-07
-4.959271e-08
-1.596483e-08
-6.232952e-09
7.044514e-09
-2.629618e-07
-4.353452e-07
5.511533e-07
4.262067e-07
-5.225733e-07
2.312231e-07
-4.161133e-08
-4.638368e-08
7.908297e-08
-1.036881e-07
1.041009e-07
-8.802342e-08
5.407737e-08
-2.704605e-08
2.687184e-09
7.656989e-11
-3.375574e-10
-2.105173e-08
1.286921e-07
-4.309758e-07
6.128911e-07
1.942781e-07
-1.052592e-06
-7.166991e-07
-4.643167e-07
-1.588228e-07
-4.904938e-08
-1.563799e-08
-6.273712e-09
6.659741e-09
-2.620488e-07
-4.346852e-07
5.515799e-07
4.248093e-07
-5.251415e-07
2.300602e-07
-4.014484e-08
-4.348270e-08
8.105693e-08
-1.043045e-07
1.018293e-07
-8.891293e-08
5.580800e-08
-2.515900e-08
2.217410e-09
-1.748396e-09
-9.368364e-10
-2.008418e-08
1.294461e-07
-4.313133e-07
6.123273e-07
1.941936e-07
-1.052403e-06
-7.163388e-07
-4.638594e-07
-1.590488e-07
-5.008093e-08
-1.571806e-08
-5.009047e-09
6.648342e-09
-2.625951e-07
-4.350222e-07
5.517137e-07
4.265376e-07
-5.230561e-07
2.302864e-07
-4.214317e-08
-4.591281e-08
8.028466e-08
-1.028368e-07
1.038706e-07
-8.875051e-08
5.403112e-08
-2.612625e-08
3.610078e-09
-7.212047e-11
-1.441072e-09
-2.191229e-08
1.289802e-07
-4.299416e-07
6.132846e-07
1.933141e-07
-1.053582e-06
-7.159609e-07
-4.627168e-07
-1.589183e-07
-5.083588e-08
-1.611481e-08
-4.735457e-09
7.047386e-09
-2.628546e-07
-4.350859e-07
5.512396e-07
4.251463e-07
-5.238141e-07
2.316096e-07
-3.954120e-08
-4.425776e-08
7.972961e-08
-1.046992e-07
1.027416e-07
-8.821482e-08
5.501668e-08
-2.624457e-08
2.819752e-09
1.384579e-11
-4.631591e-10
-2.148517e-08
1.283241e-07
-4.306875e-07
6.133943e-07
1.940301e-07
-1.053304e-06
-7.166398e-07
-4.634457e-07
-1.583856e-07
-4.961748e-08
-1.638520e-08
-6.199983e-09
7.326358e-09
-2.620510e-07
-4.346812e-07
5.521023e-07
4.262998e-07
-5.241837e-07
2.292435e-07
-4.195440e-08
-4.454130e-08
8.147571e-08
-1.032103e-07
1.023316e-07
-8.938617e-08
5.510612e-08
-2.531541e-08
2.569697e-09
-1.241718e-09
-4.612786e-10
-1.992847e-08
1.290718e-07
-4.318114e-07
6.122914e-07
1.945743e-07
-1.052221e-06
-7.168527e-07
-4.645383e-07
-1.584711e-07
-4.863054e-08
-1.608180e-08
-6.792142e-09
7.020375e-09
-2.631818e-07
-4.353592e-07
5.508118e-07
4.252753e-07
-5.228818e-07
2.322580e-07
-4.020558e-08
-4.571685e-08
7.907733e-08
-1.037287e-07
1.041387e-07
-8.824235e-08
5.376967e-08
-2.673712e-08
3.481101e-09
1.727783e-10
-1.158772e-09
-2.142306e-08
1.294559e-07
-4.302083e-07
6.125268e-07
1.932493e-07
-1.052941e-06
-7.159776e-07
-4.635531e-07
-1.590363e-07
-4.993793e-08
-1.566966e-08
-5.114120e-09
6.494881e-09
-2.626404e-07
-4.351009e-07
5.521168e-07
4.260718e-07
-5.249809e-07
2.289393e-07
-4.094723e-08
-4.314114e-08
8.169674e-08
-1.042389e-07
1.016697e-07
-8.879669e-08
5.569210e-08
-2.575294e-08
2.283790e-09
-6.107450e-10
-5.160119e-10
-2.130313e-08
1.286921e-07
-4.300773e-07
6.135572e-07
1.933207e-07
-1.053993e-06
-7.161924e-07
-4.624328e-07
-1.588028e-07
-5.120330e-08
-1.583533e-08
-3.982078e-09
6.530780e-09
-2.619794e-07
-4.343995e-07
5.511847e-07
4.255730e-07
-5.221562e-07
2.324475e-07
-4.114705e-08
-4.659261e-08
7.956834e-08
-1.025896e-07
1.042728e-07
-8.877469e-08
5.432395e-08
-2.561908e-08
2.964112e-09
-1.308909e-09
-9.868643e-10
-2.023462e-08
1.290042e-07
-4.315634e-07
6.129873e-07
1.948403e-07
-1.052962e-06
-7.171715e-07
-4.636398e-07
-1.583796e-07
-4.985684e-08
-1.608459e-08
-5.748757e-09
7.114834e-09
-2.639870e-07
-4.362214e-07
5.524922e-07
4.273739e-07
-5.237471e-07
2.307039e-07
-3.842598e-08
-4.136150e-08
8.181391e-08
-1.043255e-07
1.027981e-07
-8.785380e-08
5.485004e-08
-2.659574e-08
3.339383e-09
4.235919e-10
-1.234795e-09
-2.192999e-08
1.291079e-07
-4.304333e-07
6.125649e-07
1.940185e-07
-1.052069e-06
-7.162875e-07
-4.649115e-07
-1.592054e-07
-4.818122e-08
-1.573949e-08
-7.649203e-09
7.365988e-09
-2.607018e-07
-4.323589e-07
5.532031e-07
4.279273e-07
-5.181859e-07
2.369125e-07
-3.711963e-08
-4.210686e-08
8.448538e-08
-9.941490e-08
1.049291e-07
-8.823050e-08
5.598060e-08
-2.486504e-08
2.484517e-09
-8.132822e-10
-1.787981e-10
-2.120200e-08
1.281973e-07
-4.302627e-07
6.134999e-07
1.931154e-07
-1.053233e-06
-7.153506e-07
-4.636619e-07
-1.596383e-07
-4.946106e-08
-1.570664e-08
-6.018320e-09
6.923448e-09
-2.664557e-07
-4.396970e-07
5.542207e-07
4.342434e-07
-5.139890e-07
2.435897e-07
-2.308150e-08
-2.678095e-08
9.396099e-08
-9.352806e-08
1.119227e-07
-8.253205e-08
5.718584e-08
-2.460786e-08
4.244053e-09
-5.686082e-10
-1.061552e-09
-1.991177e-08
1.294103e-07
-4.318288e-07
6.125338e-07
1.945073e-07
-1.053206e-06
-7.169389e-07
-4.625966e-07
-1.578354e-07
-5.155110e-08
-1.682477e-08
-3.219322e-09
6.656323e-09
-2.662899e-07
-4.382411e-07
5.475339e-07
4.291840e-07
-5.039444e-07
2.628149e-07
-3.166283e-09
-2.661236e-09
1.243390e-07
-6.562530e-08
1.306786e-07
-6.925324e-08
6.768946e-08
-1.947956e-08
6.176533e-09
2.233754e-09
-1.474995e-10
-2.178775e-08
1.296017e-07
-4.303029e-07
6.116801e-07
1.940294e-07
-1.051940e-06
-7.174459e-07
-4.638304e-07
-1.570449e-07
-5.044946e-08
-1.719599e-08
-4.590303e-09
7.153707e-09
-2.796926e-07
-4.699952e-07
5.222190e-07
4.113160e-07
-5.201945e-07
2.654402e-07
3.037709e-08
4.983617e-08
1.820064e-07
-5.481175e-09
1.877830e-07
-2.575364e-08
9.661893e-08
1.071863e-12
1.589650e-08
4.750836e-09
2.541475e-09
-1.973388e-08
1.281867e-07
-4.301696e-07
6.140884e-07
1.930976e-07
-1.053825e-06
-7.156429e-07
-4.635610e-07
-1.596298e-07
-4.844728e-08
-1.514989e-08
-8.461158e-09
7.344892e-09
-2.924080e-07
-5.078586e-07
4.360800e-07
3.117636e-07
-5.922907e-07
2.234984e-07
2.044867e-08
8.979185e-08
2.718024e-07
1.087320e-07
3.037727e-07
7.872386e-08
1.761867e-07
5.146204e-08
4.825563e-08
2.199684e-08
8.062039e-09
-1.597980e-08
1.311482e-07
-4.317287e-07
6.138538e-07
1.950795e-07
-1.055191e-06
-7.162895e-07
-4.616532e-07
-1.605516e-07
-4.978571e-08
-1.397066e-08
-7.469115e-09
6.436645e-09
-3.155330e-07
-5.927350e-07
3.167606e-07
1.435528e-07
-8.007147e-07
3.824635e-08
-9.311884e-08
5.493800e-08
3.200069e-07
2.408800e-07
4.898704e-07
2.748200e-07
3.510625e-07
1.835207e-07
1.315945e-07
7.107905e-08
3.372714e-08
-8.291074e-09
1.346615e-07
-4.278400e-07
6.122614e-07
1.939028e-07
-1.051898e-06
-7.170796e-07
-4.639434e-07
-1.578466e-07
-5.102767e-08
-1.668435e-08
-2.329250e-09
6.008979e-09
-3.762291e-07
-7.231354e-07
1.038255e-07
-1.067139e-07
-1.058209e-06
-2.439687e-07
-3.752212e-07
-1.524097e-07
2.365782e-07
2.938514e-07
6.739183e-07
5.489630e-07
6.468079e-07
4.456303e-07
3.261995e-07
1.897990e-07
9.922972e-08
2.458964e-08
1.446355e-07
-4.232589e-07
6.161115e-07
1.914701e-07
-1.051235e-06
-7.141129e-07
-4.672229e-07
-1.581083e-07
-4.837270e-08
-1.820482e-08
-2.457954e-09
7.211469e-09
-4.231368e-07
-9.249229e-07
-2.190912e-07
-5.318077e-07
-1.510333e-06
-6.228472e-07
-6.803322e-07
-4.316336e-07
5.683143e-09
1.821659e-07
7.322750e-07
7.888288e-07
1.019354e-06
8.525474e-07
6.830517e-07
4.493668e-07
2.518993e-07
1.039648e-07
1.833704e-07
-4.127069e-07
6.194342e-07
1.965562e-07
-1.053166e-06
-7.151824e-07
-4.640250e-07
-1.608237e-07
-4.786431e-08
-1.428326e-08
-8.533486e-09
7.625042e-09
-5.414140e-07
-1.240474e-06
-7.266430e-07
-1.143887e-06
-2.183798e-06
-1.290540e-06
-1.201747e-06
-7.464928e-07
-1.877021e-07
3.528088e-08
6.648113e-07
8.829806e-07
1.327207e-06
1.332490e-06
1.205959e-06
8.976477e-07
5.665577e-07
2.803594e-07
2.701814e-07
-3.740136e-07
6.280097e-07
2.025596e-07
-1.049348e-06
-7.209205e-07
-4.609004e-07
-1.579822e-07
-5.232686e-08
-1.230574e-08
-9.708097e-09
5.869349e-09
-7.434829e-07
-1.857323e-06
-1.681293e-06
-2.207438e-06
-3.152985e-06
-2.134291e-06
-1.952784e-06
-1.314974e-06
-4.645730e-07
-2.036850e-08
6.761891e-07
9.271746e-07
1.497905e-06
1.727880e-06
1.799879e-06
1.529535e-06
1.088075e-06
6.294370e-07
4.534284e-07
-2.905180e-07
6.647115e-07
2.097888e-07
-1.046443e-06
-7.181328e-07
-4.636028e-07
-1.543646e-07
-5.239312e-08
-1.777170e-08
-3.665067e-09
6.095750e-09
-1.326477e-06
-3.209517e-06
-3.330414e-06
-3.874578e-06
-4.652463e-06
-3.277830e-06
-2.741180e-06
-1.916156e-06
-9.014322e-07
-1.577167e-07
8.138248e-07
1.136971e-06
1.686165e-06
2.001257e-06
2.302074e-06
2.240606e-06
1.810604e-06
1.194141e-06
8.054509e-07
-1.205754e-07
7.411202e-07
2.378435e-07
-1.046262e-06
-7.090711e-07
-4.628416e-07
-1.597152e-07
-4.662734e-08
-2.195249e-08
-1.857797e-09
9.237615e-09
-2.691489e-06
-5.316295e-06
-5.069561e-06
-5.131050e-06
-5.682636e-06
-4.256043e-06
-3.492620e-06
-2.300722e-06
-1.103796e-06
-2.970894e-07
9.059475e-07
1.508929e-06
2.104658e-06
2.333107e-06
2.686683e-06
2.864541e-06
2.633966e-06
1.973192e-06
1.367883e-06
2.031602e-07
8.842129e-07
2.954101e-07
-1.027673e-06
-7.054056e-07
-4.577525e-07
-1.648715e-07
-4.620084e-08
-1.713812e-08
-6.887885e-09
9.597512e-09
-2.696019e-06
-5.021963e-06
-3.889015e-06
-3.513081e-06
-3.987673e-06
-2.938011e-06
-2.884600e-06
-2.103055e-06
-8.166511e-07
5.201183e-08
1.154180e-06
1.873750e-06
2.714827e-06
2.931454e-06
3.131750e-06
3.359970e-06
3.389453e-06
2.884748e-06
2.150156e-06
7.199795e-07
1.149393e-06
3.966921e-07
-9.801926e-07
-6.976831e-07
-4.586405e-07
-1.576829e-07
-5.217256e-08
-1.100614e-08
-8.481224e-09
6.268771e-09
8.251812e-07
2.744705e-07
7.818259e-07
7.533382e-07
1.612208e-07
1.175356e-06
6.964077e-07
2.339168e-07
4.601726e-07
1.055274e-06
2.044364e-06
2.490275e-06
3.344280e-06
3.749426e-06
3.845475e-06
3.874661e-06
4.001070e-06
3.768664e-06
3.102383e-06
1.442956e-06
1.572966e-06
5.870316e-07
-9.061220e-07
-6.721789e-07
-4.600486e-07
-1.480317e-07
-5.531652e-08
-1.246244e-08
-5.394942e-09
3.416606e-09
1.300473e-06
2.520894e-06
3.863531e-06
3.924904e-06
3.267057e-06
4.602809e-06
4.871520e-06
4.634547e-06
3.790370e-06
3.112533e-06
3.628343e-06
3.791767e-06
4.222226e-06
4.597346e-06
4.808731e-06
4.616026e-06
4.557468e-06
4.512455e-06
4.090039e-06
2.353700e-06
2.169292e-06
9.037397e-07
-7.871659e-07
-6.302543e-07
-4.464051e-07
-1.479289e-07
-5.175243e-08
-1.626527e-08
-3.334753e-09
4.566879e-09
4.287470e-07
2.259254e-06
4.925351e-06
6.023235e-06
5.776461e-06
6.829907e-06
7.032946e-06
7.807631e-06
7.868214e-06
6.590609e-06
6.034383e-06
5.767824e-06
5.754737e-06
5.615081e-06
5.815548e-06
5.626651e-06
5.245573e-06
5.126882e-06
4.977936e-06
3.365999e-06
2.943522e-06
1.353093e-06
-5.935934e-07
-5.669022e-07
-4.146152e-07
-1.522025e-07
-4.417176e-08
-1.805051e-08
-3.435909e-09
7.183701e-09
1.177396e-06
3.342648e-06
6.297421e-06
7.718094e-06
8.161157e-06
9.810719e-06
9.574077e-06
9.546669e-06
1.022229e-05
9.948219e-06
9.134655e-06
8.234840e-06
7.949296e-06
7.195579e-06
6.895762e-06
6.723288e-06
6.184949e-06
5.734343e-06
5.705918e-06
4.359999e-06
3.860223e-06
1.930850e-06
-3.082216e-07
-4.645338e-07
-3.715624e-07
-1.511301e-07
-3.693430e-08
-1.963532e-08
-4.923768e-09
8.581047e-09
1.172094e-06
3.665034e-06
7.445917e-06
9.452669e-06
9.850720e-06
1.165270e-05
1.235512e-05
1.222563e-05
1.194341e-05
1.181027e-05
1.168564e-05
1.073208e-05
1.040215e-05
9.429301e-06
8.407702e-06
7.835856e-06
7.284674e-06
6.491547e-06
6.306842e-06
5.239492e-06
4.839375e-06
2.626298e-06
6.965800e-08
-3.087674e-07
-3.229929e-07
-1.353020e-07
-3.499559e-08
-1.696352e-08
-8.475279e-09
1.336424e-08
1.658176e-06
5.094305e-06
8.809634e-06
1.128315e-05
1.245063e-05
1.395204e-05
1.397159e-05
1.448745e-05
1.435520e-05
1.356380e-05
1.324355e-05
1.240322e-05
1.235127e-05
1.181321e-05
1.053950e-05
9.246499e-06
8.434402e-06
7.446579e-06
6.900410e-06
5.958817e-06
5.788754e-06
3.414381e-06
5.235515e-07
-9.389522e-08
-2.667975e-07
-1.009680e-07
-4.007402e-08
-9.178080e-09
-1.249824e-08
1.640671e-08
1.659305e-06
6.155619e-06
1.102267e-05
1.335244e-05
1.386717e-05
1.648858e-05
1.634030e-05
1.606390e-05
1.600762e-05
1.546088e-05
1.506303e-05
1.362067e-05
1.325242e-05
1.334020e-05
1.275266e-05
1.119414e-05
9.801319e-06
8.571411e-06
7.623032e-06
6.552806e-06
6.632451e-06
4.249198e-06
1.032307e-06
1.700424e-07
-1.891949e-07
-6.089482e-08
-4.106581e-08
-4.917258e-09
-9.592199e-09
9.632680e-09
2.816171e-06
7.764377e-06
1.338630e-05
1.686432e-05
1.690855e-05
1.794534e-05
1.828507e-05
1.801090e-05
1.754252e-05
1.638983e-05
1.648955e-05
1.534823e-05
1.411080e-05
1.374394e-05
1.390420e-05
1.312047e-05
1.156907e-05
9.963876e-06
8.591879e-06
7.153290e-06
7.344170e-06
5.067483e-06
1.580938e-06
4.590030e-07
-7.849344e-08
-2.837859e-08
-2.751255e-08
-9.650128e-09
1.701606e-09
-2.962123e-09
3.690960e-06
1.052542e-05
1.671787e-05
1.869082e-05
1.995012e-05
2.034432e-05
1.984036e-05
1.904654e-05
1.899494e-05
1.772866e-05
1.693223e-05
1.637930e-05
1.547645e-05
1.443373e-05
1.403099e-05
1.387852e-05
1.313495e-05
1.164999e-05
9.930249e-06
7.989250e-06
7.998643e-06
5.824995e-06
2.149904e-06
7.549005e-07
5.667666e-08
2.032952e-09
-7.001252e-09
-1.446053e-08
9.575260e-09
-1.084467e-08
6.133910e-06
1.435584e-05
2.058058e-05
2.218354e-05
2.195608e-05
2.170428e-05
2.122273e-05
2.021635e-05
1.941227e-05
1.862070e-05
1.774780e-05
1.693314e-05
1.592038e-05
1.534520e-05
1.475546e-05
1.386239e-05
1.346726e-05
1.293491e-05
1.147576e-05
9.276664e-06
8.823634e-06
6.560045e-06
2.735570e-06
1.049914e-06
2.017600e-07
3.899576e-08
1.020251e-08
-1.248316e-08
8.964283e-09
-7.392186e-09
1.088089e-05
2.107914e-05
2.520621e-05
2.476689e-05
2.321344e-05
2.307001e-05
2.173700e-05
2.058514e-05
2.001951e-05
1.907813e-05
1.788199e-05
1.745176e-05
1.657049e-05
1.539400e-05
1.520468e-05
1.453415e-05
1.355399e-05
1.294396e-05
1.234386e-05
1.078680e-05
1.002596e-05
7.467371e-06
3.403241e-06
1.370911e-06
3.536091e-07
8.299249e-08
2.447686e-08
-7.227773e-09
6.046160e-09
-3.116960e-09
1.910788e-05
2.914530e-05
2.734041e-05
2.565670e-05
2.378387e-05
2.301225e-05
2.177350e-05
2.095781e-05
1.990335e-05
1.907139e-05
1.839434e-05
1.731062e-05
1.670216e-05
1.593948e-05
1.524459e-05
1.451786e-05
1.407080e-05
1.331972e-05
1.206113e-05
1.139059e-05
1.133040e-05
8.605036e-06
4.362832e-06
1.826720e-06
5.632769e-07
1.495536e-07
4.037559e-08
1.160519e-09
4.069310e-09
2.403368e-10
SCALARS DxTHETA double 1
LOOKUP_TABLE dxtheta
4.719293e-06
4.619589e-06
4.512982e-06
4.403396e-06
4.289048e-06
4.167744e-06
4.043691e-06
3.914226e-06
3.774934e-06
3.637796e-06
3.483843e-06
3.330250e-06
3.161344e-06
2.981768e-06
2.775042e-06
2.549533e-06
2.307681e-06
2.043592e-06
1.756635e-06
1.458310e-06
1.135821e-06
7.187610e-07
3.505386e-07
1.414519e-07
4.444472e-08
1.308576e-08
2.682016e-09
7.747525e-10
5.804295e-11
2.610825e-11
4.687985e-06
4.586928e-06
4.480735e-06
4.369926e-06
4.254334e-06
4.132455e-06
4.007375e-06
3.873453e-06
3.736406e-06
3.588759e-06
3.434156e-06
3.271582e-06
3.091631e-06
2.902253e-06
2.695636e-06
2.468994e-06
2.225126e-06
1.961711e-06
1.669527e-06
1.361105e-06
1.038155e-06
6.521678e-07
3.193249e-07
1.300263e-07
4.162970e-08
1.230968e-08
2.682725e-09
7.207054e-10
6.696708e-11
1.615414e-11
4.655870e-06
4.553887e-06
4.444409e-06
4.334278e-06
4.218044e-06
4.094980e-06
3.968260e-06
3.834072e-06
3.691099e-06
3.542898e-06
3.382276e-06
3.213452e-06
3.027967e-06
2.834049e-06
2.620470e-06
2.392738e-06
2.148733e-06
1.877390e-06
1.573387e-06
1.274060e-06
9.874053e-07
6.360121e-07
3.201260e-07
1.335459e-07
4.375988e-08
1.320565e-08
2.884433e-09
8.403934e-10
5.096272e-11
1.445629e-11
4.622805e-06
4.518431e-06
4.410591e-06
4.298987e-06
4.181697e-06
4.057331e-06
3.928610e-06
3.792156e-06
3.647540e-06
3.495709e-06
3.330630e-06
3.158752e-06
2.969071e-06
2.768154e-06
2.553256e-06
2.322833e-06
2.065964e-06
1.787498e-06
1.499621e-06
1.235970e-06
9.815676e-07
6.457283e-07
3.309293e-07
1.395538e-07
4.644017e-08
1.408225e-08
3.056727e-09
9.979012e-10
-6.221469e-11
1.114621e-10
4.588235e-06
4.484410e-06
4.373952e-06
4.261997e-06
4.143863e-06
4.018494e-06
3.889420e-06
3.750666e-06
3.602898e-06
3.449841e-06
3.282002e-06
3.104873e-06
2.912355e-06
2.710475e-06
2.489043e-06
2.244063e-06
1.984985e-06
1.728789e-06
1.473713e-06
1.237513e-06
9.963115e-07
6.620835e-07
3.423206e-07
1.449691e-07
4.872047e-08
1.476265e-08
3.194789e-09
1.137813e-09
-1.195753e-10
8.485162e-11
4.554943e-06
4.448853e-06
4.338231e-06
4.225752e-06
4.107695e-06
3.981606e-06
3.849297e-06
3.709016e-06
3.561649e-06
3.405337e-06
3.232356e-06
3.055983e-06
2.862704e-06
2.650144e-06
2.416587e-06
2.174627e-06
1.941072e-06
1.715368e-06
1.480939e-06
1.255180e-06
1.015812e-06
6.782418e-07
3.519090e-07
1.495208e-07
5.029515e-08
1.539667e-08
3.234586e-09
1.175933e-09
-1.357328e-11
9.270905e-11
4.520213e-06
4.415632e-06
4.304022e-06
4.191269e-06
4.071735e-06
3.942942e-06
3.811132e-06
3.671377e-06
3.520139e-06
3.360562e-06
3.190160e-06
3.012375e-06
2.805922e-06
2.584537e-06
2.360746e-06
2.144752e-06
1.938644e-06
1.728394e-06
1.500365e-06
1.276282e-06
1.035021e-06
6.923101e-07
3.594800e-07
1.531821e-07
5.124202e-08
1.600046e-08
3.208690e-09
1.204153e-09
-4.880846e-11
3.815122e-11
4.489050e-06
4.382136e-06
4.269736e-06
4.155967e-06
4.035908e-06
3.908430e-06
3.776422e-06
3.632971e-06
3.480686e-06
3.324257e-06
3.150788e-06
2.959982e-06
2.748478e-06
2.542201e-06
2.344200e-06
2.151103e-06
1.956982e-06
1.749677e-06
1.522342e-06
1.296925e-06
1.052573e-06
7.037100e-07
3.653838e-07
1.557743e-07
5.194798e-08
1.635309e-08
3.176692e-09
1.383701e-09
-1.740174e-10
1.378359e-10
4.455780e-06
4.350331e-06
4.237746e-06
4.124596e-06
4.004967e-06
3.876121e-06
3.741959e-06
3.599243e-06
3.449310e-06
3.288359e-06
3.104205e-06
2.912745e-06
2.719127e-06
2.537242e-06
2.357622e-06
2.173320e-06
1.980389e-06
1.772194e-06
1.543944e-06
1.316221e-06
1.067532e-06
7.125710e-07
3.697937e-07
1.573725e-07
5.263588e-08
1.641162e-08
3.178771e-09
1.478041e-09
-2.807200e-10
2.063957e-10
4.431753e-06
4.322966e-06
4.209650e-06
4.095748e-06
3.975322e-06
3.846626e-06
3.714053e-06
3.571978e-06
3.417290e-06
3.249568e-06
3.069115e-06
2.895968e-06
2.723707e-06
2.555970e-06
2.382351e-06
2.198384e-06
2.003629e-06
1.794114e-06
1.564317e-06
1.333471e-06
1.079367e-06
7.192487e-07
3.727664e-07
1.583632e-07
5.313574e-08
1.640190e-08
3.297139e-09
1.384149e-09
-2.356294e-10
1.471218e-10
4.400775e-06
4.294370e-06
4.182747e-06
4.070542e-06
3.951946e-06
3.824356e-06
3.691148e-06
3.545819e-06
3.388908e-06
3.228080e-06
3.064261e-06
2.908112e-06
2.745956e-06
2.582039e-06
2.408184e-06
2.222231e-06
2.025699e-06
1.814817e-06
1.582886e-06
1.347780e-06
1.088221e-06
7.239256e-07
3.746055e-07
1.590572e-07
5.329068e-08
1.644649e-08
3.426931e-09
1.264685e-09
-4.912357e-11
1.245061e-10
4.379611e-06
4.274913e-06
4.165675e-06
4.055064e-06
3.936656e-06
3.808554e-06
3.674636e-06
3.530590e-06
3.381351e-06
3.233711e-06
3.081855e-06
2.932219e-06
2.772215e-06
2.607828e-06
2.432065e-06
2.244239e-06
2.046347e-06
1.833860e-06
1.598735e-06
1.358719e-06
1.094483e-06
7.268321e-07
3.757413e-07
1.595120e-07
5.328833e-08
1.650328e-08
3.423194e-09
1.207492e-09
-2.160023e-11
5.783154e-11
4.379879e-06
4.274408e-06
4.163922e-06
4.051986e-06
3.933115e-06
3.805497e-06
3.673542e-06
3.535269e-06
3.394731e-06
3.254359e-06
3.106204e-06
2.957643e-06
2.797124e-06
2.631106e-06
2.453585e-06
2.264453e-06
2.065322e-06
1.850414e-06
1.611091e-06
1.366470e-06
1.098523e-06
7.284828e-07
3.764173e-07
1.597115e-07
5.334953e-08
1.653576e-08
3.378002e-09
1.270724e-09
-1.013757e-10
7.937592e-11
4.394281e-06
4.287796e-06
4.175110e-06
4.061791e-06
3.942450e-06
3.815245e-06
3.686043e-06
3.552388e-06
3.415731e-06
3.277372e-06
3.129852e-06
2.980897e-06
2.819113e-06
2.651628e-06
2.472988e-06
2.282864e-06
2.081907e-06
1.863519e-06
1.619872e-06
1.371473e-06
1.100845e-06
7.294168e-07
3.767457e-07
1.597538e-07
5.343902e-08
1.652152e-08
3.365170e-09
1.362742e-09
-1.457540e-10
1.350384e-10
4.405405e-06
4.300159e-06
4.187798e-06
4.074442e-06
3.955158e-06
3.829153e-06
3.702361e-06
3.571089e-06
3.436032e-06
3.298427e-06
3.150786e-06
3.000967e-06
2.838113e-06
2.669817e-06
2.490450e-06
2.298897e-06
2.095071e-06
1.872832e-06
1.625520e-06
1.374327e-06
1.102073e-06
7.299188e-07
3.768660e-07
1.597851e-07
5.346862e-08
1.649474e-08
3.357193e-09
1.352987e-09
-1.549203e-10
1.223785e-10
4.409463e-06
4.306227e-06
4.195572e-06
4.083593e-06
3.965628e-06
3.841548e-06
3.717118e-06
3.587849e-06
3.453908e-06
3.316489e-06
3.168403e-06
3.017991e-06
2.854715e-06
2.685968e-06
2.505468e-06
2.311516e-06
2.104331e-06
1.878741e-06
1.628720e-06
1.375782e-06
1.102692e-06
7.301185e-07
3.769178e-07
1.598330e-07
5.344550e-08
1.651505e-08
3.370123e-09
1.300486e-09
-1.219562e-10
1.185229e-10
4.410255e-06
4.308415e-06
4.199486e-06
4.088929e-06
3.973013e-06
3.851815e-06
3.729936e-06
3.602121e-06
3.468696e-06
3.331306e-06
3.183152e-06
3.032726e-06
2.869239e-06
2.699559e-06
2.517020e-06
2.320193e-06
2.110063e-06
1.882012e-06
1.630305e-06
1.376487e-06
1.102955e-06
7.301727e-07
3.769633e-07
1.598437e-07
5.341662e-08
1.654798e-08
3.383812e-09
1.282421e-09
-9.290140e-11
1.140273e-10
4.408954e-06
4.308277e-06
4.200520e-06
4.092050e-06
3.979242e-06
3.860792e-06
3.740562e-06
3.613600e-06
3.480678e-06
3.343688e-06
3.195840e-06
3.045352e-06
2.881050e-06
2.709615e-06
2.524667e-06
2.325368e-06
2.113125e-06
1.883567e-06
1.631029e-06
1.376784e-06
1.103031e-06
7.302148e-07
3.769817e-07
1.598259e-07
5.342594e-08
1.653986e-08
3.371165e-09
1.299581e-09
-1.035701e-10
1.006634e-10
4.406755e-06
4.307023e-06
4.200958e-06
4.095144e-06
3.984852e-06
3.868120e-06
3.749022e-06
3.622918e-06
3.490703e-06
3.354184e-06
3.206311e-06
3.055074e-06
2.889282e-06
2.715904e-06
2.528991e-06
2.327996e-06
2.114515e-06
1.884244e-06
1.631324e-06
1.376864e-06
1.103068e-06
7.302450e-07
3.769616e-07
1.598308e-07
5.345358e-08
1.651037e-08
3.367757e-09
1.325510e-09
-1.268530e-10
1.075333e-10
4.403893e-06
4.305303e-06
4.201319e-06
4.097850e-06
3.989426e-06
3.874046e-06
3.755991e-06
3.630690e-06
3.498918e-06
3.362308e-06
3.213743e-06
3.061304e-06
2.894045e-06
2.719212e-06
2.531037e-06
2.329115e-06
2.115089e-06
1.884508e-06
1.631405e-06
1.376900e-06
1.103096e-06
7.302315e-07
3.769546e-07
1.598475e-07
5.344830e-08
1.650665e-08
3.380292e-09
1.322209e-09
-1.334059e-10
1.211063e-10
4.400782e-06
4.303859e-06
4.202100e-06
4.100515e-06
3.993403e-06
3.878965e-06
3.761556e-06
3.636529e-06
3.504599e-06
3.367431e-06
3.218010e-06
3.064575e-06
2.896337e-06
2.720650e-06
2.531849e-06
2.329549e-06
2.115290e-06
1.884568e-06
1.631436e-06
1.376930e-06
1.103088e-06
7.302248e-07
3.769760e-07
1.598356e-07
5.342994e-08
1.653140e-08
3.377428e-09
1.300583e-09
-1.168314e-10
1.194971e-10
4.398175e-06
4.303239e-06
4.203190e-06
4.102708e-06
3.996303e-06
3.882298e-06
3.765049e-06
3.639922e-06
3.507671e-06
3.370010e-06
3.220007e-06
3.065989e-06
2.897238e-06
2.721180e-06
2.532149e-06
2.329691e-06
2.115334e-06
1.884594e-06
1.631456e-06
1.376917e-06
1.103079e-06
7.302450e-07
3.769781e-07
1.598207e-07
5.343780e-08
1.653925e-08
3.363392e-09
1.300638e-09
-1.028524e-10
1.077546e-10
4.396408e-06
4.302967e-06
4.203835e-06
4.103899e-06
3.997828e-06
3.883990e-06
3.766760e-06
3.641509e-06
3.509019e-06
3.371061e-06
3.220759e-06
3.066483e-06
2.897547e-06
2.721362e-06
2.532229e-06
2.329716e-06
2.115361e-06
1.884615e-06
1.631446e-06
1.376910e-06
1.103093e-06
7.302391e-07
3.769627e-07
1.598372e-07
5.344812e-08
1.652022e-08
3.366895e-09
1.313731e-09
-1.144418e-10
1.071357e-10
4.395605e-06
4.302885e-06
4.204140e-06
4.104422e-06
3.998475e-06
3.884686e-06
3.767429e-06
3.642096e-06
3.509493e-06
3.371414e-06
3.221001e-06
3.066639e-06
2.897636e-06
2.721397e-06
2.532246e-06
2.329738e-06
2.115368e-06
1.884601e-06
1.631448e-06
1.376931e-06
1.103091e-06
7.302216e-07
3.769665e-07
1.598467e-07
5.343762e-08
1.651614e-08
3.382450e-09
1.311824e-09
-1.302218e-10
1.184423e-10
4.395286e-06
4.302859e-06
4.204243e-06
4.104597e-06
3.998688e-06
3.884905e-06
3.767633e-06
3.642271e-06
3.509635e-06
3.371521e-06
3.221076e-06
3.066679e-06
2.897648e-06
2.721407e-06
2.532261e-06
2.329739e-06
2.115356e-06
1.884603e-06
1.631457e-06
1.376923e-06
1.103084e-06
7.302374e-07
3.769748e-07
1.598285e-07
5.343130e-08
1.652980e-08
3.381170e-09
1.305367e-09
-1.230814e-10
1.193289e-10
4.395187e-06
4.302843e-06
4.204265e-06
4.104643e-06
3.998749e-06
3.884973e-06
3.767698e-06
3.642323e-06
3.509668e-06
3.371538e-06
3.221083e-06
3.066690e-06
2.897668e-06
2.721418e-06
2.532249e-06
2.329727e-06
2.115367e-06
1.884616e-06
1.631447e-06
1.376910e-06
1.103091e-06
7.302463e-07
3.769692e-07
1.598272e-07
5.344097e-08
1.652627e-08
3.366456e-09
1.312196e-09
-1.072059e-10
1.072081e-10
4.395174e-06
4.302853e-06
4.204281e-06
4.104658e-06
3.998762e-06
3.884982e-06
3.767704e-06
3.642331e-06
3.509678e-06
3.371547e-06
3.221089e-06
3.066691e-06
2.897662e-06
2.721413e-06
2.532258e-06
2.329740e-06
2.115363e-06
1.884600e-06
1.631449e-06
1.376927e-06
1.103090e-06
7.302271e-07
3.769666e-07
1.598447e-07
5.344557e-08
1.651562e-08
3.364850e-09
1.316318e-09
-1.099713e-10
1.051845e-10
4.395156e-06
4.302840e-06
4.204272e-06
4.104658e-06
3.998768e-06
3.884991e-06
3.767711e-06
3.642333e-06
3.509678e-06
3.371549e-06
3.221091e-06
3.066687e-06
2.897656e-06
2.721415e-06
2.532264e-06
2.329741e-06
2.115359e-06
1.884602e-06
1.631454e-06
1.376925e-06
1.103085e-06
7.302293e-07
3.769700e-07
1.598380e-07
5.343932e-08
1.652627e-08
3.377176e-09
1.304600e-09
-1.257548e-10
1.183285e-10
4.395162e-06
4.302849e-06
4.204279e-06
4.104658e-06
3.998763e-06
3.884986e-06
3.767711e-06
3.642336e-06
3.509679e-06
3.371545e-06
3.221087e-06
3.066693e-06
2.897667e-06
2.721414e-06
2.532248e-06
2.329732e-06
2.115372e-06
1.884617e-06
1.631447e-06
1.376910e-06
1.103089e-06
7.302447e-07
3.769700e-07
1.598235e-07
5.343543e-08
1.653626e-08
3.381967e-09
1.299369e-09
-1.277731e-10
1.226137e-10
4.395161e-06
4.302844e-06
4.204274e-06
4.104659e-06
3.998768e-06
3.884988e-06
3.767708e-06
3.642332e-06
3.509680e-06
3.371552e-06
3.221093e-06
3.066689e-06
2.897657e-06
2.721412e-06
2.532259e-06
2.329737e-06
2.115361e-06
1.884606e-06
1.631454e-06
1.376924e-06
1.103087e-06
7.302324e-07
3.769694e-07
1.598362e-07
5.343896e-08
1.652179e-08
3.372022e-09
1.313989e-09
-1.118570e-10
1.080205e-10
4.395156e-06
4.302845e-06
4.204277e-06
4.104657e-06
3.998764e-06
3.884989e-06
3.767713e-06
3.642335e-06
3.509677e-06
3.371545e-06
3.221089e-06
3.066691e-06
2.897663e-06
2.721416e-06
2.532259e-06
2.329736e-06
2.115357e-06
1.884600e-06
1.631455e-06
1.376931e-06
1.103089e-06
7.302255e-07
3.769674e-07
1.598450e-07
5.344387e-08
1.651215e-08
3.363375e-09
1.322501e-09
-1.037708e-10
9.919037e-11
4.395166e-06
4.302849e-06
4.204279e-06
4.104661e-06
3.998767e-06
3.884986e-06
3.767707e-06
3.642333e-06
3.509680e-06
3.371548e-06
3.221089e-06
3.066692e-06
2.897665e-06
2.721414e-06
2.532251e-06
2.329733e-06
2.115369e-06
1.884611e-06
1.631443e-06
1.376913e-06
1.103094e-06
7.302443e-07
3.769677e-07
1.598288e-07
5.344009e-08
1.652648e-08
3.371961e-09
1.308396e-09
-1.196473e-10
1.145236e-10
4.395157e-06
4.302844e-06
4.204274e-06
4.104655e-06
3.998766e-06
3.884992e-06
3.767714e-06
3.642334e-06
3.509677e-06
3.371548e-06
3.221091e-06
3.066688e-06
2.897656e-06
2.721413e-06
2.532262e-06
2.329739e-06
2.115361e-06
1.884606e-06
1.631450e-06
1.376916e-06
1.103086e-06
7.302419e-07
3.769753e-07
1.598280e-07
5.343098e-08
1.653288e-08
3.385923e-09
1.296701e-09
-1.358019e-10
1.312248e-10
4.395165e-06
4.302847e-06
4.204281e-06
4.104663e-06
3.998766e-06
3.884983e-06
3.767705e-06
3.642334e-06
3.509679e-06
3.371545e-06
3.221087e-06
3.066691e-06
2.897665e-06
2.721415e-06
2.532256e-06
2.329737e-06
2.115362e-06
1.884603e-06
1.631455e-06
1.376928e-06
1.103082e-06
7.302227e-07
3.769731e-07
1.598459e-07
5.343696e-08
1.652067e-08
3.377662e-09
1.306056e-09
-1.212810e-10
1.194228e-10
4.395171e-06
4.302848e-06
4.204270e-06
4.104646e-06
3.998758e-06
3.884986e-06
3.767706e-06
3.642327e-06
3.509673e-06
3.371546e-06
3.221090e-06
3.066689e-06
2.897660e-06
2.721413e-06
2.532252e-06
2.329734e-06
2.115369e-06
1.884613e-06
1.631448e-06
1.376917e-06
1.103091e-06
7.302327e-07
3.769618e-07
1.598379e-07
5.345257e-08
1.652280e-08
3.355944e-09
1.315788e-09
-9.541963e-11
9.492253e-11
4.395199e-06
4.302852e-06
4.204277e-06
4.104651e-06
3.998741e-06
3.884951e-06
3.767675e-06
3.642307e-06
3.509656e-06
3.371529e-06
3.221077e-06
3.066682e-06
2.897655e-06
2.721411e-06
2.532259e-06
2.329738e-06
2.115360e-06
1.884606e-06
1.631452e-06
1.376916e-06
1.103089e-06
7.302452e-07
3.769657e-07
1.598200e-07
5.344659e-08
1.653562e-08
3.362229e-09
1.310867e-09
-1.065201e-10
9.894235e-11
4.395309e-06
4.302885e-06
4.204257e-06
4.104601e-06
3.998690e-06
3.884896e-06
3.767600e-06
3.642220e-06
3.509579e-06
3.371471e-06
3.221035e-06
3.066656e-06
2.897644e-06
2.721404e-06
2.532249e-06
2.329733e-06
2.115360e-06
1.884601e-06
1.631452e-06
1.376929e-06
1.103089e-06
7.302306e-07
3.769715e-07
1.598354e-07
5.342946e-08
1.652197e-08
3.391399e-09
1.310072e-09
-1.425701e-10
1.269994e-10
4.395573e-06
4.302990e-06
4.204297e-06
4.104571e-06
3.998564e-06
3.884696e-06
3.767372e-06
3.641985e-06
3.509348e-06
3.371267e-06
3.220877e-06
3.066545e-06
2.897571e-06
2.721364e-06
2.532230e-06
2.329723e-06
2.115362e-06
1.884609e-06
1.631446e-06
1.376921e-06
1.103095e-06
7.302279e-07
3.769648e-07
1.598516e-07
5.343353e-08
1.650222e-08
3.390782e-09
1.319471e-09
-1.364800e-10
1.286294e-10
4.396119e-06
4.303295e-06
4.204438e-06
4.104603e-06
3.998473e-06
3.884423e-06
3.766896e-06
3.641375e-06
3.508706e-06
3.370672e-06
3.220381e-06
3.066176e-06
2.897327e-06
2.721219e-06
2.532157e-06
2.329692e-06
2.115342e-06
1.884599e-06
1.631449e-06
1.376915e-06
1.103085e-06
7.302402e-07
3.769736e-07
1.598344e-07
5.343856e-08
1.652160e-08
3.362628e-09
1.314246e-09
-9.003083e-11
9.582794e-11
4.397003e-06
4.304148e-06
4.205145e-06
4.105086e-06
3.998633e-06
3.884201e-06
3.766260e-06
3.640332e-06
3.507371e-06
3.369250e-06
3.219076e-06
3.065121e-06
2.896571e-06
2.720737e-06
2.531880e-06
2.329550e-06
2.115281e-06
1.884569e-06
1.631441e-06
1.376922e-06
1.103077e-06
7.302350e-07
3.769890e-07
1.598219e-07
5.342628e-08
1.655003e-08
3.361999e-09
1.294589e-09
-8.919631e-11
8.941623e-11
4.398151e-06
4.305745e-06
4.206939e-06
4.106875e-06
4.000107e-06
3.884958e-06
3.766037e-06
3.639095e-06
3.505268e-06
3.366588e-06
3.216277e-06
3.062591e-06
2.894575e-06
2.719353e-06
2.531035e-06
2.329093e-06
2.115065e-06
1.884486e-06
1.631404e-06
1.376904e-06
1.103084e-06
7.302346e-07
3.769713e-07
1.598289e-07
5.343736e-08
1.653811e-08
3.380775e-09
1.293798e-09
-1.465052e-10
1.339264e-10
4.399791e-06
4.308473e-06
4.210410e-06
4.110570e-06
4.003638e-06
3.887855e-06
3.767663e-06
3.638926e-06
3.503163e-06
3.362840e-06
3.211525e-06
3.057654e-06
2.890201e-06
2.715999e-06
2.528796e-06
2.327785e-06
2.114391e-06
1.884184e-06
1.631288e-06
1.376852e-06
1.103075e-06
7.302466e-07
3.769436e-07
1.598273e-07
5.347449e-08
1.651239e-08
3.367338e-09
1.313547e-09
-1.598753e-10
1.585490e-10
4.402495e-06
4.312762e-06
4.216479e-06
4.117588e-06
4.010494e-06
3.893722e-06
3.771962e-06
3.641050e-06
3.502532e-06
3.359236e-06
3.205348e-06
3.049931e-06
2.882297e-06
2.709149e-06
2.523702e-06
2.324517e-06
2.112575e-06
1.883300e-06
1.630912e-06
1.376724e-06
1.103032e-06
7.302212e-07
3.769439e-07
1.598352e-07
5.347147e-08
1.651046e-08
3.348538e-09
1.320571e-09
-9.618495e-11
1.130078e-10
4.407448e-06
4.319986e-06
4.226258e-06
4.129300e-06
4.022613e-06
3.904508e-06
3.780121e-06
3.645985e-06
3.503980e-06
3.356897e-06
3.199076e-06
3.040233e-06
2.870607e-06
2.697489e-06
2.513890e-06
2.317495e-06
2.108285e-06
1.881044e-06
1.629876e-06
1.376329e-06
1.102901e-06
7.301456e-07
3.769520e-07
1.598681e-07
5.341706e-08
1.651383e-08
3.379054e-09
1.305830e-09
-6.310932e-11
6.322146e-11
4.417430e-06
4.333732e-06
4.243591e-06
4.148789e-06
4.042265e-06
3.922288e-06
3.794197e-06
3.655037e-06
3.507685e-06
3.355651e-06
3.193172e-06
3.029737e-06
2.856117e-06
2.680858e-06
2.497887e-06
2.304550e-06
2.099451e-06
1.875940e-06
1.627367e-06
1.375264e-06
1.102501e-06
7.300195e-07
3.769361e-07
1.598601e-07
5.338092e-08
1.651699e-08
3.416362e-09
1.297794e-09
-1.140126e-10
8.472134e-11
4.438710e-06
4.361149e-06
4.275282e-06
4.181598e-06
4.073354e-06
3.949306e-06
3.815568e-06
3.669645e-06
3.514681e-06
3.355232e-06
3.186605e-06
3.018095e-06
2.839704e-06
2.660317e-06
2.475538e-06
2.284003e-06
2.083652e-06
1.865784e-06
1.621905e-06
1.372760e-06
1.101486e-06
7.297187e-07
3.768587e-07
1.597677e-07
5.340685e-08
1.654479e-08
3.386177e-09
1.319376e-09
-1.612042e-10
1.367908e-10
4.485538e-06
4.412568e-06
4.325388e-06
4.227549e-06
4.114314e-06
3.984315e-06
3.843069e-06
3.688670e-06
3.524810e-06
3.356022e-06
3.178657e-06
3.003513e-06
2.820310e-06
2.636503e-06
2.447943e-06
2.255588e-06
2.058955e-06
1.847992e-06
1.611291e-06
1.367466e-06
1.099249e-06
7.289442e-07
3.766060e-07
1.596475e-07
5.345298e-08
1.656058e-08
3.315131e-09
1.350657e-09
-1.518816e-10
1.395951e-10
4.549758e-06
4.467666e-06
4.366066e-06
4.256585e-06
4.136871e-06
4.004846e-06
3.862259e-06
3.703639e-06
3.532758e-06
3.355555e-06
3.168820e-06
2.984832e-06
2.795555e-06
2.607949e-06
2.415739e-06
2.220417e-06
2.024823e-06
1.820337e-06
1.592901e-06
1.357393e-06
1.094716e-06
7.272017e-07
3.759699e-07
1.595274e-07
5.343270e-08
1.650443e-08
3.318458e-09
1.348282e-09
-1.245111e-10
1.086728e-10
4.533197e-06
4.443224e-06
4.331707e-06
4.214349e-06
4.090530e-06
3.961552e-06
3.830128e-06
3.684714e-06
3.521152e-06
3.343858e-06
3.152401e-06
2.960822e-06
2.763882e-06
2.571860e-06
2.377457e-06
2.179417e-06
1.982264e-06
1.781813e-06
1.564271e-06
1.340133e-06
1.086231e-06
7.236977e-07
3.746779e-07
1.592660e-07
5.330011e-08
1.641366e-08
3.431657e-09
1.273076e-09
-9.420060e-11
1.017438e-10
4.372874e-06
4.298468e-06
4.197465e-06
4.085151e-06
3.962707e-06
3.833899e-06
3.709603e-06
3.585395e-06
3.450962e-06
3.296357e-06
3.115429e-06
2.925238e-06
2.723777e-06
2.526340e-06
2.330121e-06
2.131636e-06
1.932627e-06
1.733061e-06
1.523853e-06
1.313216e-06
1.071710e-06
7.172505e-07
3.723411e-07
1.585660e-07
5.304712e-08
1.636203e-08
3.505701e-09
1.168109e-09
-4.455987e-11
1.026773e-10
4.176687e-06
4.095052e-06
3.997472e-06
3.890279e-06
3.773809e-06
3.648865e-06
3.522806e-06
3.400558e-06
3.288156e-06
3.173269e-06
3.029210e-06
2.861177e-06
2.668283e-06
2.469936e-06
2.271448e-06
2.074326e-06
1.875947e-06
1.675693e-06
1.471587e-06
1.274597e-06
1.048974e-06
7.063791e-07
3.682589e-07
1.570907e-07
5.262014e-08
1.635862e-08
3.394305e-09
1.197181e-09
-3.051603e-11
7.682672e-11
3.943883e-06
3.854897e-06
3.750284e-06
3.641569e-06
3.527073e-06
3.410256e-06
3.294781e-06
3.173127e-06
3.056512e-06
2.958831e-06
2.858802e-06
2.738147e-06
2.578318e-06
2.395690e-06
2.199915e-06
2.004735e-06
1.810334e-06
1.610918e-06
1.408767e-06
1.223266e-06
1.016046e-06
6.894788e-07
3.613471e-07
1.545549e-07
5.190107e-08
1.631917e-08
3.136247e-09
1.404545e-09
-1.456468e-10
8.425801e-11
3.663200e-06
3.567792e-06
3.459600e-06
3.348656e-06
3.234633e-06
3.118512e-06
3.011246e-06
2.907874e-06
2.798962e-06
2.694692e-06
2.605879e-06
2.528735e-06
2.422449e-06
2.282887e-06
2.108688e-06
1.920614e-06
1.732874e-06
1.538358e-06
1.337236e-06
1.159539e-06
9.714643e-07
6.649435e-07
3.504235e-07
1.506350e-07
5.070379e-08
1.606071e-08
2.916845e-09
1.592773e-09
-3.240003e-10
1.563196e-10
3.351824e-06
3.243314e-06
3.127448e-06
3.013467e-06
2.901405e-06
2.792315e-06
2.687494e-06
2.589826e-06
2.502977e-06
2.414117e-06
2.319997e-06
2.249885e-06
2.181811e-06
2.099418e-06
1.976014e-06
1.814366e-06
1.639988e-06
1.455597e-06
1.258273e-06
1.084830e-06
9.145029e-07
6.313957e-07
3.345059e-07
1.447899e-07
4.879794e-08
1.545810e-08
2.895299e-09
1.535175e-09
-3.710362e-10
2.213246e-10
2.996398e-06
2.877763e-06
2.752641e-06
2.637276e-06
2.526423e-06
2.423870e-06
2.335118e-06
2.245956e-06
2.162960e-06
2.095953e-06
2.021393e-06
1.951460e-06
1.887136e-06
1.834846e-06
1.770399e-06
1.663206e-06
1.521938e-06
1.357451e-06
1.170990e-06
1.001016e-06
8.451546e-07
5.879824e-07
3.128194e-07
1.363350e-07
4.601774e-08
1.452228e-08
2.973839e-09
1.219400e-09
-2.058769e-10
1.943858e-10
2.605067e-06
2.472676e-06
2.339062e-06
2.222230e-06
2.118965e-06
2.024548e-06
1.944052e-06
1.876130e-06
1.807781e-06
1.745972e-06
1.689169e-06
1.638930e-06
1.583669e-06
1.531071e-06
1.490256e-06
1.438430e-06
1.354163e-06
1.230710e-06
1.069441e-06
9.085346e-07
7.639678e-07
5.342906e-07
2.848160e-07
1.247234e-07
4.226108e-08
1.323295e-08
2.925749e-09
8.796135e-10
2.939308e-11
6.944966e-11
2.168186e-06
2.019134e-06
1.881544e-06
1.771497e-06
1.678380e-06
1.602158e-06
1.537460e-06
1.479044e-06
1.430295e-06
1.385377e-06
1.339077e-06
1.298194e-06
1.262767e-06
1.225180e-06
1.183936e-06
1.149384e-06
1.112441e-06
1.048362e-06
9.365949e-07
8.014851e-07
6.705696e-07
4.697587e-07
2.502408e-07
1.096738e-07
3.738886e-08
1.152650e-08
2.694377e-09
6.703429e-10
1.402313e-10
-2.324730e-11
1.679394e-06
1.516111e-06
1.385523e-06
1.288088e-06
1.216984e-06
1.158851e-06
1.114053e-06
1.074968e-06
1.040416e-06
1.007347e-06
9.789892e-07
9.513353e-07
9.204347e-07
8.999356e-07
8.755397e-07
8.463066e-07
8.188376e-07
7.920663e-07
7.430020e-07
6.599797e-07
5.579141e-07
3.918411e-07
2.084808e-07
9.103270e-08
3.123061e-08
9.409274e-09
2.324185e-09
5.186033e-10
1.218039e-10
-2.277496e-11
1.121049e-06
9.560343e-07
8.523996e-07
7.880796e-07
7.458073e-07
7.125473e-07
6.868190e-07
6.641678e-07
6.449167e-07
6.272727e-07
6.087918e-07
5.937086e-07
5.766116e-07
5.632319e-07
5.475130e-07
5.358973e-07
5.210899e-07
4.966891e-07
4.780891e-07
4.534578e-07
4.038604e-07
2.900722e-07
1.557199e-07
6.787884e-08
2.343123e-08
6.908720e-09
1.793442e-09
3.516911e-10
8.195302e-11
4.837456e-12
4.680818e-07
3.613278e-07
3.179322e-07
2.969616e-07
2.841262e-07
2.736964e-07
2.655122e-07
2.575736e-07
2.517821e-07
2.443156e-07
2.385757e-07
2.337788e-07
2.249172e-07
2.224031e-07
2.171566e-07
2.093224e-07
2.085745e-07
2.010601e-07
1.877665e-07
1.822387e-07
1.790712e-07
1.391057e-07
7.781941e-08
3.491940e-08
1.222797e-08
3.622568e-09
9.776177e-10
1.559400e-10
6.900588e-11
-4.862010e-12
